$ 

TYPE_DEFINITION % SEQ *!
DEFINE_SYSTEM_DEFAULT ELEMENT 2 !
DEFAULT_COMMAND DEF_SYS_ELEMENT VA !

$ ELEMENT NAME REF_STATE ATOMIC_MASS H298-H0 S298 !
ELEMENT VA VACUUM                0.000000E+00 0.000000E+00 0.000000E+00 !
ELEMENT /- ELECTRON_GAS          0.000000E+00 0.000000E+00 0.000000E+00 !
ELEMENT AG FCC_A1                1.078682E+02 5.744632E+03 4.255130E+01 !
ELEMENT AL FCC_A1                2.698154E+01 4.577296E+03 2.832150E+01 !
ELEMENT AR 1_MOLE_AR1(G)         3.994800E+01 0.000000E+00 0.000000E+00 !
ELEMENT AS RHO-A7                7.492160E+01 5.117000E+03 3.568950E+01 !
ELEMENT AU FCC_A1                1.969665E+02 6.016592E+03 4.748840E+01 !
ELEMENT B  BET                   1.081000E+01 1.222000E+03 5.900000E+00 !
ELEMENT BI RHOMBOHEDRAL_A7       2.089804E+02 6.426624E+03 5.673500E+01 !
ELEMENT CA FCC_A1                4.007800E+01 6.196504E+03 4.158896E+01 !
ELEMENT CD HCP_A3                1.124110E+02 6.250896E+03 5.179790E+01 !
ELEMENT CE FCC_A1                1.401150E+02 7.280160E+03 6.945440E+01 !
ELEMENT CO HCP_A3                5.893320E+01 4.765567E+03 3.004000E+01 !
ELEMENT CR BCC_A2                5.199610E+01 4.050000E+03 2.356000E+01 !
ELEMENT CU FCC_A1                6.354600E+01 5.004064E+03 3.314980E+01 !
ELEMENT DY HCP_A3                1.625000E+02 8.865896E+03 7.556300E+01 !
ELEMENT ER HCP_A3                1.672600E+02 7.392291E+03 7.317816E+01 !
ELEMENT EU BCC_A2                1.519650E+02 0.000000E+00 8.079304E+01 !
ELEMENT FE BCC_A2                5.584700E+01 4.489000E+03 2.728000E+01 !
ELEMENT GA ORT                   6.972000E+01 5.572000E+03 4.072710E+01 !
ELEMENT GD HCP_A3                1.572500E+02 9.087648E+03 6.794820E+01 !
ELEMENT GE DIA_A4                7.259000E+01 4.636000E+03 3.109000E+01 !
ELEMENT HF HCP_A3                1.784900E+02 5.845000E+03 4.356000E+01 !
ELEMENT HO HCP_A3                1.649303E+02 7.995624E+03 7.501910E+01 !
ELEMENT IN TETRAGONAL_A6         1.148200E+02 6.610000E+03 5.765000E+01 !
ELEMENT IR FCC_A1                1.922200E+02 5.267656E+03 3.550540E+01 !
ELEMENT LA DOUBLE_HCP(ABAC)      1.389055E+02 6.665112E+03 5.690240E+01 !
ELEMENT LI BCC_A2                6.941000E+00 4.623320E+03 2.909550E+01 !
ELEMENT LU HCP_A3                1.749670E+02 6.388968E+03 5.096110E+01 !
ELEMENT MG HCP_A3                2.430500E+01 4.998000E+03 3.267100E+01 !
ELEMENT MN CBCC_A12              5.493805E+01 4.996000E+03 3.200760E+01 !
ELEMENT MO BCC_A2                9.594000E+01 4.589000E+03 2.856000E+01 !
ELEMENT NB BCC_A2                9.290638E+01 5.220000E+03 3.627000E+01 !
ELEMENT ND DOUBLE_HCP(ABAC)      1.442400E+02 7.133720E+03 7.108620E+01 !
ELEMENT NI FCC_A1                5.869000E+01 4.787000E+03 2.979600E+01 !
ELEMENT OS HCP_A3                1.902000E+02 0.000000E+00 3.263520E+01 !
ELEMENT PB FCC_A1                2.072000E+02 6.878496E+03 6.478510E+01 !
ELEMENT PD FCC_A1                1.064200E+02 5.468488E+03 3.782340E+01 !
ELEMENT PR DOUBLE_HCP(ABAC)      1.409076E+02 7.418232E+03 7.393130E+01 !
ELEMENT PT FCC_A1                1.950800E+02 5.723712E+03 4.163080E+01 !
ELEMENT RE HCP_A3                1.862070E+02 5.355520E+03 3.652630E+01 !
ELEMENT RH FCC_A1                1.029055E+02 4.920384E+03 3.150550E+01 !
ELEMENT RU HCP_A3                1.010700E+02 4.602400E+03 2.853490E+01 !
ELEMENT SB RHOMBOHEDRAL_A7       1.217500E+02 5.870152E+03 4.552190E+01 !
ELEMENT SC HCP_A3                4.495591E+01 5.217448E+03 3.464350E+01 !
ELEMENT SE HEX_A8                7.896000E+01 5.514512E+03 4.196550E+01 !
ELEMENT SI DIA_A4                2.808550E+01 3.217000E+03 1.881000E+01 !
ELEMENT SM RHOMBOHEDRAL          1.503600E+02 7.573040E+03 6.949620E+01 !
ELEMENT SN BCT_A5                1.187100E+02 6.322024E+03 5.119540E+01 !
ELEMENT TA BCC_A2                1.809479E+02 5.681872E+03 4.147180E+01 !
ELEMENT TB HCP_A3                1.589253E+02 9.426552E+03 7.330370E+01 !
ELEMENT TE HEX_A8                1.276000E+02 6.121192E+03 4.949670E+01 !
ELEMENT TI HCP_A3                4.788000E+01 4.810000E+03 3.064800E+01 !
ELEMENT TM HCP_A3                1.689342E+02 7.397312E+03 7.401496E+01 !
ELEMENT V  BCC_A2                5.094150E+01 4.507000E+03 3.089000E+01 !
ELEMENT W  BCC_A2                1.838500E+02 4.970000E+03 3.262000E+01 !
ELEMENT XE MONOATOMIC_GAS        1.312900E+02 0.000000E+00 0.000000E+00 !
ELEMENT Y  HCP_A3                8.890585E+01 5.966384E+03 4.443410E+01 !
ELEMENT YB FCC_A1                1.730400E+02 0.000000E+00 0.000000E+00 !
ELEMENT ZN HCP_A3                6.539000E+01 5.656768E+03 4.163080E+01 !
ELEMENT ZR HCP_A3                9.122400E+01 5.566270E+03 3.918100E+01 !
$ END ELEMENT !

$ FUNCTION FUNC TEMP_START EXPRESSION TEMP_END IS_CONTINUED !
FUNCTION SERAL   1.00 -3.570000E+05+3.180000E+01*T-6.867000E+00*T*LN(T)
    -2.622000E-02*T**2+3.001000E-06*T**3-4.389000E+03*T**(-1); 6000.00 N !
FUNCTION SERCO   1.00 -6.815000E+05+7.178000E+01*T-1.454000E+01*T*LN(T)
    -9.912000E-03*T**2+1.033000E-08*T**3-3.081000E+04*T**(-1); 6000.00 N !
FUNCTION SERCR   1.00 -9.169536E+05+1.111277E+02*T-2.093443E+01*T*LN(T)
    -4.607961E-03*T**2+5.525740E-07*T**3+1.278476E+04*T**(-1); 6000.00 N !
FUNCTION SERCU   1.00 -3.541000E+05+1.385000E+02*T-2.662000E+01*T*LN(T)
    -3.160000E-03*T**2+8.475000E-07*T**3+1.994000E+04*T**(-1); 6000.00 N !
FUNCTION SERFE   1.00 -7.992000E+05+1.267000E+02*T-2.352000E+01*T*LN(T)
    -3.609000E-03*T**2+5.939000E-07*T**3-3.441000E+04*T**(-1); 6000.00 N !
FUNCTION SERHF   1.00 -9.603863E+05+8.412593E+01*T-1.773362E+01*T*LN(T)
    -6.905999E-04*T**2+4.330515E-08*T**3+9.722188E+03*T**(-1); 6000.00 N !
FUNCTION SERMN   1.00 -8.544266E+05+1.052247E+02*T-2.019749E+01*T*LN(T)
    -4.467407E-03*T**2+7.377775E-07*T**3+1.177798E+04*T**(-1); 6000.00 N !
FUNCTION SERMO   1.00 -1.050284E+06+9.946146E+01*T-1.829393E+01*T*LN(T)
    -7.153946E-03*T**2+1.036608E-06*T**3+1.298411E+04*T**(-1); 6000.00 N !
FUNCTION SERNB   1.00 -9.729402E+05+1.297198E+02*T-2.461360E+01*T*LN(T)
    -8.578475E-04*T**2+7.179958E-08*T**3+4.097868E+04*T**(-1); 6000.00 N !
FUNCTION SERNI   1.00 -5.336000E+05+8.431000E+01*T-1.804000E+01*T*LN(T)
    -8.457000E-03*T**2+1.145000E-06*T**3-2.443000E+04*T**(-1); 6000.00 N !
FUNCTION SERRE   1.00 -1.192000E+06+7.977000E+01*T-1.373000E+01*T*LN(T)
    -1.156000E-02*T**2+1.623000E-06*T**3+1.366000E+04*T**(-1); 6000.00 N !
FUNCTION SERTA   1.00 -1.141000E+06+1.117000E+02*T-2.140000E+01*T*LN(T)
    -4.213000E-03*T**2+5.356000E-07*T**3+1.180000E+04*T**(-1); 6000.00 N !
FUNCTION SERTI   1.00 -7.484000E+05+1.120000E+02*T-2.181000E+01*T*LN(T)
    -4.081000E-03*T**2+7.821000E-07*T**3+1.127000E+04*T**(-1); 6000.00 N !
FUNCTION SERV    1.00 -8.627167E+05+1.410154E+02*T-2.622917E+01*T*LN(T)
    +6.432615E-03*T**2-2.063623E-06*T**3+1.909847E+04*T**(-1); 6000.00 N !
FUNCTION SERW    1.00 -1.250000E+06+9.153000E+01*T-1.645000E+01*T*LN(T)
    -8.760000E-03*T**2+1.280000E-06*T**3+1.320000E+04*T**(-1); 6000.00 N !
FUNCTION SERZR   1.00 -8.180805E+05+1.200277E+02*T-2.427612E+01*T*LN(T)
    -4.161582E-04*T**2+8.426419E-08*T**3+2.894529E+04*T**(-1); 6000.00 N !
$ END FUNCTION !

$ PHASE SUB_LATTICES STOICHIOMETRY !
$ CONSTITUENT PHASE COMPONENTS !
PHASE BCC     % 2 0.5 0.5 !
CONSTITUENT BCC     : AL,CO,CR,CU,FE,HF,MN,MO,NB,NI,RE,TA,TI,V,W,ZR :
    AL,CO,CR,CU,FE,HF,MN,MO,NB,NI,RE,TA,TI,V,W,ZR: !
PARAMETER G(BCC,AL:AL;0) 1.00 -3.479000E+05+7.006000E+01*T
    -1.406000E+01*T*LN(T)-6.444000E-03*T**2+5.730000E-07*T**3
    -1.534000E+04*T**(-1)-1*SERAL#; 6000.00 N !
PARAMETER G(BCC,AL:CO;0) 1.00 -5.767000E+05+7.480000E+01*T
    -1.406000E+01*T*LN(T)-7.578000E-03*T**2+3.213000E-07*T**3
    -2.553000E+04*T**(-1)-0.5*SERAL#-0.5*SERCO#; 6000.00 N !
PARAMETER G(BCC,AL:CR;0) 1.00 -6.381000E+05+7.819000E+01*T
    -1.509000E+01*T*LN(T)-5.613000E-03*T**2-1.559000E-07*T**3
    -2.856000E+04*T**(-1)-0.5*SERAL#-0.5*SERCR#; 6000.00 N !
PARAMETER G(BCC,AL:CU;0) 1.00 -3.726000E+05+8.305000E+01*T
    -1.721000E+01*T*LN(T)-4.671000E-03*T**2+5.547000E-07*T**3
    -1.676000E+04*T**(-1)-0.5*SERAL#-0.5*SERCU#; 6000.00 N !
PARAMETER G(BCC,AL:FE;0) 1.00 -6.089000E+05+5.410000E+01*T
    -1.110000E+01*T*LN(T)-1.156000E-02*T**2+6.197000E-07*T**3
    -2.758000E+04*T**(-1)-0.5*SERAL#-0.5*SERFE#; 6000.00 N !
PARAMETER G(BCC,AL:HF;0) 1.00 -6.797357E+05+1.035347E+02*T
    -1.915994E+01*T*LN(T)-2.872557E-04*T**2+3.774085E-08*T**3
    +6.346125E+04*T**(-1)-0.5*SERAL#-0.5*SERHF#; 6000.00 N !
PARAMETER G(BCC,AL:MN;0) 1.00 -6.355000E+05+1.238000E+02*T
    -2.260000E+01*T*LN(T)+5.018000E-03*T**2-2.038000E-06*T**3
    +1.950000E+04*T**(-1)-0.5*SERAL#-0.5*SERMN#; 6000.00 N !
PARAMETER G(BCC,AL:MO;0) 1.00 -6.949000E+05+2.723000E+01*T
    -6.197000E+00*T*LN(T)-1.341000E-02*T**2+1.399000E-06*T**3
    -3.166000E+04*T**(-1)-0.5*SERAL#-0.5*SERMO#; 6000.00 N !
PARAMETER G(BCC,AL:NB;0) 1.00 -6.711564E+05+1.096670E+02*T
    -1.978131E+01*T*LN(T)-2.452088E-04*T**2+2.934453E-08*T**3
    +6.481528E+04*T**(-1)-0.5*SERAL#-0.5*SERNB#; 6000.00 N !
PARAMETER G(BCC,AL:NI;0) 1.00 -5.097000E+05+7.249000E+01*T
    -1.413000E+01*T*LN(T)-1.033000E-02*T**2+1.056000E-06*T**3
    -2.200000E+04*T**(-1)-0.5*SERAL#-0.5*SERNI#; 6000.00 N !
PARAMETER G(BCC,AL:RE;0) 1.00 -7.757000E+05+5.543000E+01*T
    -1.211000E+01*T*LN(T)-7.972000E-03*T**2+7.681000E-07*T**3
    -3.485000E+04*T**(-1)-0.5*SERAL#-0.5*SERRE#; 6000.00 N !
PARAMETER G(BCC,AL:TA;0) 1.00 -7.382000E+05+4.944000E+01*T
    -1.084000E+01*T*LN(T)-6.663000E-03*T**2+5.566000E-07*T**3
    -3.359000E+04*T**(-1)-0.5*SERAL#-0.5*SERTA#; 6000.00 N !
PARAMETER G(BCC,AL:TI;0) 1.00 -5.774000E+05+6.766000E+01*T
    -1.370000E+01*T*LN(T)-7.053000E-03*T**2+7.825000E-07*T**3
    -2.577000E+04*T**(-1)-0.5*SERAL#-0.5*SERTI#; 6000.00 N !
PARAMETER G(BCC,AL:V;0) 1.00 -6.074000E+05+4.959000E+01*T
    -1.079000E+01*T*LN(T)-1.056000E-02*T**2+1.109000E-06*T**3
    -2.802000E+04*T**(-1)-0.5*SERAL#-0.5*SERV#; 6000.00 N !
PARAMETER G(BCC,AL:W;0) 1.00 -7.722000E+05+4.042000E+01*T
    -8.847000E+00*T*LN(T)-7.770000E-03*T**2+8.596000E-07*T**3
    -3.519000E+04*T**(-1)-0.5*SERAL#-0.5*SERW#; 6000.00 N !
PARAMETER G(BCC,AL:ZR;0) 1.00 -6.163264E+05+8.892196E+01*T
    -1.687224E+01*T*LN(T)-2.468475E-03*T**2+3.323032E-07*T**3
    +2.681758E+04*T**(-1)-0.5*SERAL#-0.5*SERZR#; 6000.00 N !
PARAMETER G(BCC,CO:AL;0) 1.00 -5.767000E+05+7.480000E+01*T
    -1.406000E+01*T*LN(T)-7.578000E-03*T**2+3.213000E-07*T**3
    -2.553000E+04*T**(-1)-0.5*SERAL#-0.5*SERCO#; 6000.00 N !
PARAMETER G(BCC,CO:CO;0) 1.00 -6.721000E+05+4.183000E+01*T
    -9.800000E+00*T*LN(T)-1.390000E-02*T**2+1.384000E-06*T**3
    -3.072000E+04*T**(-1)-1*SERCO#; 6000.00 N !
PARAMETER G(BCC,CO:CR;0) 1.00 -7.808000E+05+7.053000E+01*T
    -1.401000E+01*T*LN(T)-8.917000E-03*T**2+8.671000E-07*T**3
    -3.545000E+04*T**(-1)-0.5*SERCO#-0.5*SERCR#; 6000.00 N !
PARAMETER G(BCC,CO:CU;0) 1.00 -4.941000E+05+8.418000E+01*T
    -1.706000E+01*T*LN(T)-5.890000E-03*T**2+7.124000E-07*T**3
    -2.247000E+04*T**(-1)-0.5*SERCO#-0.5*SERCU#; 6000.00 N !
PARAMETER G(BCC,CO:FE;0) 1.00 -7.454000E+05+7.119000E+01*T
    -1.418000E+01*T*LN(T)-9.195000E-03*T**2+1.031000E-06*T**3
    -3.379000E+04*T**(-1)-0.5*SERCO#-0.5*SERFE#; 6000.00 N !
PARAMETER G(BCC,CO:HF;0) 1.00 -8.619635E+05+6.308929E+01*T
    -1.229799E+01*T*LN(T)-3.329434E-04*T**2+4.723639E-08*T**3
    +1.011336E+04*T**(-1)-0.5*SERCO#-0.5*SERHF#; 6000.00 N !
PARAMETER G(BCC,CO:MN;0) 1.00 -7.422000E+05+6.760000E+01*T
    -1.258000E+01*T*LN(T)-3.553000E-03*T**2+5.056000E-07*T**3
    +8.490000E+03*T**(-1)-0.5*SERCO#-0.5*SERMN#; 6000.00 N !
PARAMETER G(BCC,CO:MO;0) 1.00 -8.421405E+05+4.594989E+01*T
    -8.793804E+00*T*LN(T)-2.916725E-02*T**2+5.341492E-06*T**3
    +5.196397E+03*T**(-1)-0.5*SERCO#-0.5*SERMO#; 6000.00 N !
PARAMETER G(BCC,CO:NB;0) 1.00 -8.288673E+05+9.235216E+01*T
    -1.932617E+01*T*LN(T)-8.380356E-04*T**2-5.390193E-07*T**3
    -7.830343E+04*T**(-1)-0.5*SERCO#-0.5*SERNB#; 6000.00 N !
PARAMETER G(BCC,CO:NI;0) 1.00 -5.934000E+05+4.848000E+01*T
    -1.062000E+01*T*LN(T)-8.555000E-03*T**2+9.451000E-07*T**3
    -2.735000E+04*T**(-1)-0.5*SERCO#-0.5*SERNI#; 6000.00 N !
PARAMETER G(BCC,CO:RE;0) 1.00 -9.054000E+05+3.957000E+01*T
    -9.592000E+00*T*LN(T)-6.992000E-03*T**2+7.394000E-07*T**3
    -4.156000E+04*T**(-1)-0.5*SERCO#-0.5*SERRE#; 6000.00 N !
PARAMETER G(BCC,CO:TA;0) 1.00 -9.233091E+05+8.451323E+01*T
    -1.774083E+01*T*LN(T)-3.477995E-04*T**2-1.074399E-06*T**3
    +4.668608E+03*T**(-1)-0.5*SERCO#-0.5*SERTA#; 6000.00 N !
PARAMETER G(BCC,CO:TI;0) 1.00 -7.507000E+05+7.757000E+01*T
    -1.591000E+01*T*LN(T)-8.339000E-03*T**2+9.790000E-07*T**3
    -3.407000E+04*T**(-1)-0.5*SERCO#-0.5*SERTI#; 6000.00 N !
PARAMETER G(BCC,CO:V;0) 1.00 -7.763000E+05+7.902000E+01*T
    -1.611000E+01*T*LN(T)-6.393000E-03*T**2+4.822000E-07*T**3
    -3.524000E+04*T**(-1)-0.5*SERCO#-0.5*SERV#; 6000.00 N !
PARAMETER G(BCC,CO:W;0) 1.00 -9.383880E+05+3.381563E+01*T
    -7.768178E+00*T*LN(T)-1.646218E-02*T**2+3.939203E-06*T**3
    -2.435715E+03*T**(-1)-0.5*SERCO#-0.5*SERW#; 6000.00 N !
PARAMETER G(BCC,CO:ZR;0) 1.00 -7.781516E+05+1.099702E+02*T
    -2.157427E+01*T*LN(T)-3.501934E-03*T**2+4.671160E-07*T**3
    -3.739439E+03*T**(-1)-0.5*SERCO#-0.5*SERZR#; 6000.00 N !
PARAMETER G(BCC,CR:AL;0) 1.00 -6.381000E+05+7.819000E+01*T
    -1.509000E+01*T*LN(T)-5.613000E-03*T**2-1.559000E-07*T**3
    -2.856000E+04*T**(-1)-0.5*SERAL#-0.5*SERCR#; 6000.00 N !
PARAMETER G(BCC,CR:CO;0) 1.00 -7.808000E+05+7.053000E+01*T
    -1.401000E+01*T*LN(T)-8.917000E-03*T**2+8.671000E-07*T**3
    -3.545000E+04*T**(-1)-0.5*SERCO#-0.5*SERCR#; 6000.00 N !
PARAMETER G(BCC,CR:CR;0) 1.00 -9.169536E+05+1.111277E+02*T
    -2.093443E+01*T*LN(T)-4.607961E-03*T**2+5.525740E-07*T**3
    +1.278476E+04*T**(-1)-1*SERCR#; 6000.00 N !
PARAMETER G(BCC,CR:CU;0) 1.00 -8.222143E+05+1.078922E+02*T
    -2.051444E+01*T*LN(T)+1.094753E-03*T**2-6.260346E-07*T**3
    +1.296160E+04*T**(-1)-0.5*SERCR#-0.5*SERCU#; 6000.00 N !
PARAMETER G(BCC,CR:FE;0) 1.00 -8.371000E+05+4.730000E+01*T
    -1.075000E+01*T*LN(T)-1.455000E-02*T**2+1.730000E-06*T**3
    -3.842000E+04*T**(-1)-0.5*SERCR#-0.5*SERFE#; 6000.00 N !
PARAMETER G(BCC,CR:HF;0) 1.00 -9.173692E+05-3.254315E+01*T
    +1.871149E-01*T*LN(T)-3.211110E-02*T**2+6.486441E-06*T**3
    -3.613442E+05*T**(-1)-0.5*SERCR#-0.5*SERHF#; 6000.00 N !
PARAMETER G(BCC,CR:MN;0) 1.00 -8.849000E+05+1.037000E+02*T
    -1.894000E+01*T*LN(T)-6.198000E-03*T**2+6.273000E-07*T**3
    +1.396000E+04*T**(-1)-0.5*SERCR#-0.5*SERMN#; 6000.00 N !
PARAMETER G(BCC,CR:MO;0) 1.00 -9.755000E+05+6.269000E+01*T
    -1.304000E+01*T*LN(T)-9.773000E-03*T**2+1.010000E-06*T**3
    -4.468000E+04*T**(-1)-0.5*SERCR#-0.5*SERMO#; 6000.00 N !
PARAMETER G(BCC,CR:NB;0) 1.00 -9.399597E+05+1.400096E+02*T
    -2.493482E+01*T*LN(T)-2.438763E-04*T**2-1.295891E-07*T**3
    +7.847374E+04*T**(-1)-0.5*SERCR#-0.5*SERNB#; 6000.00 N !
PARAMETER G(BCC,CR:NI;0) 1.00 -6.672373E+05+1.083567E+02*T
    -2.037302E+01*T*LN(T)-4.614478E-03*T**2+6.500911E-07*T**3
    +1.283658E+04*T**(-1)-0.5*SERCR#-0.5*SERNI#; 6000.00 N !
PARAMETER G(BCC,CR:RE;0) 1.00 -1.050000E+06+6.581000E+01*T
    -1.482000E+01*T*LN(T)-8.662000E-03*T**2+9.966000E-07*T**3
    -4.704000E+04*T**(-1)-0.5*SERCR#-0.5*SERRE#; 6000.00 N !
PARAMETER G(BCC,CR:TA;0) 1.00 -1.032000E+06+6.138000E+01*T
    -1.323000E+01*T*LN(T)-1.025000E-02*T**2+1.321000E-06*T**3
    -4.607000E+04*T**(-1)-0.5*SERCR#-0.5*SERTA#; 6000.00 N !
PARAMETER G(BCC,CR:TI;0) 1.00 -8.219000E+05+7.399000E+01*T
    -1.448000E+01*T*LN(T)-1.468000E-02*T**2+1.970000E-06*T**3
    +6.297000E+03*T**(-1)-0.5*SERCR#-0.5*SERTI#; 6000.00 N !
PARAMETER G(BCC,CR:V;0) 1.00 -8.960246E+05+9.857783E+01*T
    -1.771047E+01*T*LN(T)-7.627864E-03*T**2+1.092589E-06*T**3
    +1.427098E+04*T**(-1)-0.5*SERCR#-0.5*SERV#; 6000.00 N !
PARAMETER G(BCC,CR:W;0) 1.00 -1.079000E+06+5.681000E+01*T
    -1.226000E+01*T*LN(T)-1.038000E-02*T**2+1.199000E-06*T**3
    -4.956000E+04*T**(-1)-0.5*SERCR#-0.5*SERW#; 6000.00 N !
PARAMETER G(BCC,CR:ZR;0) 1.00 -8.479924E+05+1.017221E+02*T
    -1.948743E+01*T*LN(T)-4.707230E-05*T**2+3.378505E-09*T**3
    +1.851585E+04*T**(-1)-0.5*SERCR#-0.5*SERZR#; 6000.00 N !
PARAMETER G(BCC,CU:AL;0) 1.00 -3.726000E+05+8.305000E+01*T
    -1.721000E+01*T*LN(T)-4.671000E-03*T**2+5.547000E-07*T**3
    -1.676000E+04*T**(-1)-0.5*SERAL#-0.5*SERCU#; 6000.00 N !
PARAMETER G(BCC,CU:CO;0) 1.00 -4.941000E+05+8.418000E+01*T
    -1.706000E+01*T*LN(T)-5.890000E-03*T**2+7.124000E-07*T**3
    -2.247000E+04*T**(-1)-0.5*SERCO#-0.5*SERCU#; 6000.00 N !
PARAMETER G(BCC,CU:CR;0) 1.00 -8.222143E+05+1.078922E+02*T
    -2.051444E+01*T*LN(T)+1.094753E-03*T**2-6.260346E-07*T**3
    +1.296160E+04*T**(-1)-0.5*SERCU#-0.5*SERCR#; 6000.00 N !
PARAMETER G(BCC,CU:CU;0) 1.00 -3.497000E+05+8.890000E+01*T
    -1.810000E+01*T*LN(T)-5.687000E-03*T**2-6.595000E-07*T**3
    -1.561000E+04*T**(-1)-1*SERCU#; 6000.00 N !
PARAMETER G(BCC,CU:FE;0) 1.00 -5.506600E+05-2.833547E+01*T
    +3.528897E+00*T*LN(T)-3.717681E-02*T**2+8.105536E-06*T**3
    -1.630690E+04*T**(-1)-0.5*SERCU#-0.5*SERFE#; 6000.00 N !
PARAMETER G(BCC,CU:HF;0) 1.00 -6.692147E+05+1.210699E+02*T
    -2.509277E+01*T*LN(T)+7.266875E-05*T**2-7.393191E-09*T**3
    +2.388157E+04*T**(-1)-0.5*SERCU#-0.5*SERHF#; 6000.00 N !
PARAMETER G(BCC,CU:MN;0) 1.00 -6.494406E+05+1.529508E+03*T
    -2.320758E+02*T*LN(T)+1.618689E-01*T**2-2.168537E-05*T**3
    +2.108386E+06*T**(-1)-0.5*SERCU#-0.5*SERMN#; 6000.00 N !
PARAMETER G(BCC,CU:MO;0) 1.00 -6.569897E+05+8.354155E+01*T
    -1.599066E+01*T*LN(T)-3.240594E-03*T**2+5.148989E-07*T**3
    +9.327551E+03*T**(-1)-0.5*SERCU#-0.5*SERMO#; 6000.00 N !
PARAMETER G(BCC,CU:NB;0) 1.00 -6.480382E+05+1.238409E+02*T
    -2.374131E+01*T*LN(T)-5.902603E-04*T**2+1.289682E-07*T**3
    +5.437703E+04*T**(-1)-0.5*SERCU#-0.5*SERNB#; 6000.00 N !
PARAMETER G(BCC,CU:NI;0) 1.00 -4.374000E+05+6.572000E+01*T
    -1.412000E+01*T*LN(T)-9.772000E-03*T**2+7.074000E-07*T**3
    -2.010000E+04*T**(-1)-0.5*SERCU#-0.5*SERNI#; 6000.00 N !
PARAMETER G(BCC,CU:RE;0) 1.00 -7.164000E+05+5.495000E+01*T
    -1.185000E+01*T*LN(T)-6.653000E-03*T**2+7.291000E-07*T**3
    -3.255000E+04*T**(-1)-0.5*SERCU#-0.5*SERRE#; 6000.00 N !
PARAMETER G(BCC,CU:TA;0) 1.00 -7.285000E+05+6.821000E+01*T
    -1.579000E+01*T*LN(T)-5.483000E-03*T**2+3.012000E-07*T**3
    -3.319000E+04*T**(-1)-0.5*SERCU#-0.5*SERTA#; 6000.00 N !
PARAMETER G(BCC,CU:TI;0) 1.00 -5.532000E+05+7.786000E+01*T
    -1.666000E+01*T*LN(T)-6.943000E-03*T**2+2.054000E-07*T**3
    -2.464000E+04*T**(-1)-0.5*SERCU#-0.5*SERTI#; 6000.00 N !
PARAMETER G(BCC,CU:V;0) 1.00 -5.774000E+05+6.168000E+01*T
    -1.309000E+01*T*LN(T)-6.102000E-03*T**2+7.147000E-07*T**3
    -2.648000E+04*T**(-1)-0.5*SERCU#-0.5*SERV#; 6000.00 N !
PARAMETER G(BCC,CU:W;0) 1.00 -7.420000E+05+4.857000E+01*T
    -1.098000E+01*T*LN(T)-6.229000E-03*T**2+7.245000E-07*T**3
    -3.383000E+04*T**(-1)-0.5*SERCU#-0.5*SERW#; 6000.00 N !
PARAMETER G(BCC,CU:ZR;0) 1.00 -5.990217E+05+1.250841E+02*T
    -2.519499E+01*T*LN(T)-2.609343E-04*T**2-8.079372E-09*T**3
    +3.289990E+04*T**(-1)-0.5*SERCU#-0.5*SERZR#; 6000.00 N !
PARAMETER G(BCC,FE:AL;0) 1.00 -6.089000E+05+5.410000E+01*T
    -1.110000E+01*T*LN(T)-1.156000E-02*T**2+6.197000E-07*T**3
    -2.758000E+04*T**(-1)-0.5*SERAL#-0.5*SERFE#; 6000.00 N !
PARAMETER G(BCC,FE:CO;0) 1.00 -7.454000E+05+7.119000E+01*T
    -1.418000E+01*T*LN(T)-9.195000E-03*T**2+1.031000E-06*T**3
    -3.379000E+04*T**(-1)-0.5*SERCO#-0.5*SERFE#; 6000.00 N !
PARAMETER G(BCC,FE:CR;0) 1.00 -8.371000E+05+4.730000E+01*T
    -1.075000E+01*T*LN(T)-1.455000E-02*T**2+1.730000E-06*T**3
    -3.842000E+04*T**(-1)-0.5*SERCR#-0.5*SERFE#; 6000.00 N !
PARAMETER G(BCC,FE:CU;0) 1.00 -5.506600E+05-2.833547E+01*T
    +3.528897E+00*T*LN(T)-3.717681E-02*T**2+8.105536E-06*T**3
    -1.630690E+04*T**(-1)-0.5*SERFE#-0.5*SERCU#; 6000.00 N !
PARAMETER G(BCC,FE:FE;0) 1.00 -7.992000E+05+1.267000E+02*T
    -2.352000E+01*T*LN(T)-3.609000E-03*T**2+5.939000E-07*T**3
    -3.441000E+04*T**(-1)-1*SERFE#; 6000.00 N !
PARAMETER G(BCC,FE:HF;0) 1.00 -9.155166E+05+1.479655E+02*T
    -2.772951E+01*T*LN(T)+1.817266E-03*T**2-2.105573E-07*T**3
    +5.894611E+04*T**(-1)-0.5*SERFE#-0.5*SERHF#; 6000.00 N !
PARAMETER G(BCC,FE:MN;0) 1.00 -8.236185E+05+1.043885E+02*T
    -1.893197E+01*T*LN(T)-6.219905E-03*T**2+6.662545E-07*T**3
    +1.444761E+04*T**(-1)-0.5*SERFE#-0.5*SERMN#; 6000.00 N !
PARAMETER G(BCC,FE:MO;0) 1.00 -9.077000E+05+6.778000E+01*T
    -1.472000E+01*T*LN(T)-9.163000E-03*T**2+1.020000E-06*T**3
    -4.156000E+04*T**(-1)-0.5*SERFE#-0.5*SERMO#; 6000.00 N !
PARAMETER G(BCC,FE:NB;0) 1.00 -8.906129E+05+1.247231E+02*T
    -2.450281E+01*T*LN(T)+7.287292E-04*T**2-1.259260E-07*T**3
    -1.156394E+04*T**(-1)-0.5*SERFE#-0.5*SERNB#; 6000.00 N !
PARAMETER G(BCC,FE:NI;0) 1.00 -6.291000E+05+6.186000E+01*T
    -1.274000E+01*T*LN(T)-6.787000E-03*T**2+7.976000E-07*T**3
    -2.887000E+04*T**(-1)-0.5*SERFE#-0.5*SERNI#; 6000.00 N !
PARAMETER G(BCC,FE:RE;0) 1.00 -9.835000E+05+1.393000E+02*T
    -2.737000E+01*T*LN(T)+3.329000E-02*T**2-1.822000E-05*T**3
    +1.398000E+04*T**(-1)-0.5*SERFE#-0.5*SERRE#; 6000.00 N !
PARAMETER G(BCC,FE:TA;0) 1.00 -9.863000E+05+6.736000E+01*T
    -1.473000E+01*T*LN(T)-8.335000E-03*T**2+8.756000E-07*T**3
    -4.524000E+04*T**(-1)-0.5*SERFE#-0.5*SERTA#; 6000.00 N !
PARAMETER G(BCC,FE:TI;0) 1.00 -8.120000E+05+7.320000E+01*T
    -1.434000E+01*T*LN(T)-7.990000E-03*T**2+6.725000E-07*T**3
    -3.686000E+04*T**(-1)-0.5*SERFE#-0.5*SERTI#; 6000.00 N !
PARAMETER G(BCC,FE:V;0) 1.00 -8.403000E+05+6.713000E+01*T
    -1.386000E+01*T*LN(T)-9.576000E-03*T**2+1.088000E-06*T**3
    -3.834000E+04*T**(-1)-0.5*SERFE#-0.5*SERV#; 6000.00 N !
PARAMETER G(BCC,FE:W;0) 1.00 -1.008000E+06+6.458000E+01*T
    -1.465000E+01*T*LN(T)-9.225000E-03*T**2+1.171000E-06*T**3
    -4.628000E+04*T**(-1)-0.5*SERFE#-0.5*SERW#; 6000.00 N !
PARAMETER G(BCC,FE:ZR;0) 1.00 -8.237352E+05+1.992408E+01*T
    -6.809650E+00*T*LN(T)-2.118430E-02*T**2+2.857228E-06*T**3
    -1.849358E+05*T**(-1)-0.5*SERFE#-0.5*SERZR#; 6000.00 N !
PARAMETER G(BCC,HF:AL;0) 1.00 -6.797357E+05+1.035347E+02*T
    -1.915994E+01*T*LN(T)-2.872557E-04*T**2+3.774085E-08*T**3
    +6.346125E+04*T**(-1)-0.5*SERHF#-0.5*SERAL#; 6000.00 N !
PARAMETER G(BCC,HF:CO;0) 1.00 -8.619635E+05+6.308929E+01*T
    -1.229799E+01*T*LN(T)-3.329434E-04*T**2+4.723639E-08*T**3
    +1.011336E+04*T**(-1)-0.5*SERHF#-0.5*SERCO#; 6000.00 N !
PARAMETER G(BCC,HF:CR;0) 1.00 -9.173692E+05-3.254315E+01*T
    +1.871149E-01*T*LN(T)-3.211110E-02*T**2+6.486441E-06*T**3
    -3.613442E+05*T**(-1)-0.5*SERHF#-0.5*SERCR#; 6000.00 N !
PARAMETER G(BCC,HF:CU;0) 1.00 -6.692147E+05+1.210699E+02*T
    -2.509277E+01*T*LN(T)+7.266875E-05*T**2-7.393191E-09*T**3
    +2.388157E+04*T**(-1)-0.5*SERHF#-0.5*SERCU#; 6000.00 N !
PARAMETER G(BCC,HF:FE;0) 1.00 -9.155166E+05+1.479655E+02*T
    -2.772951E+01*T*LN(T)+1.817266E-03*T**2-2.105573E-07*T**3
    +5.894611E+04*T**(-1)-0.5*SERHF#-0.5*SERFE#; 6000.00 N !
PARAMETER G(BCC,HF:HF;0) 1.00 -9.429154E+05+7.907988E+01*T
    -1.732754E+01*T*LN(T)-3.740288E-04*T**2+1.292703E-08*T**3
    +5.688585E+03*T**(-1)-0.5*SERHF#-0.5*SERHF#; 6000.00 N !
PARAMETER G(BCC,HF:MN;0) 1.00 -9.297796E+05+1.318834E+02*T
    -2.498200E+01*T*LN(T)-5.559806E-04*T**2+1.542584E-08*T**3
    +4.434618E+04*T**(-1)-0.5*SERHF#-0.5*SERMN#; 6000.00 N !
PARAMETER G(BCC,HF:MO;0) 1.00 -9.763518E+05-5.282147E+02*T
    +7.885846E+01*T*LN(T)-1.004775E-01*T**2+1.572497E-05*T**3
    -1.297091E+06*T**(-1)-0.5*SERHF#-0.5*SERMO#; 6000.00 N !
PARAMETER G(BCC,HF:NB;0) 1.00 -9.557191E+05+1.086844E+02*T
    -2.281679E+01*T*LN(T)-8.157743E-04*T**2+7.335648E-08*T**3
    +1.408225E+04*T**(-1)-0.5*SERHF#-0.5*SERNB#; 6000.00 N !
PARAMETER G(BCC,HF:NI;0) 1.00 -7.926991E+05+1.044915E+02*T
    -1.980493E+01*T*LN(T)-1.543802E-04*T**2+2.504985E-07*T**3
    +1.312579E+05*T**(-1)-0.5*SERHF#-0.5*SERNI#; 6000.00 N !
PARAMETER G(BCC,HF:RE;0) 1.00 -1.111866E+06+1.292573E+02*T
    -2.485614E+01*T*LN(T)-4.610149E-04*T**2-1.399332E-09*T**3
    +3.538816E+04*T**(-1)-0.5*SERHF#-0.5*SERRE#; 6000.00 N !
PARAMETER G(BCC,HF:TA;0) 1.00 -1.033655E+06+9.532294E+01*T
    -2.011061E+01*T*LN(T)+8.981062E-05*T**2-1.537191E-09*T**3
    +1.610467E+04*T**(-1)-0.5*SERHF#-0.5*SERTA#; 6000.00 N !
PARAMETER G(BCC,HF:TI;0) 1.00 -8.416184E+05+7.917918E+01*T
    -1.659562E+01*T*LN(T)+7.501604E-05*T**2+1.486533E-09*T**3
    +1.325509E+04*T**(-1)-0.5*SERHF#-0.5*SERTI#; 6000.00 N !
PARAMETER G(BCC,HF:V;0) 1.00 -8.947717E+05+1.272672E+02*T
    -2.473749E+01*T*LN(T)-4.756802E-04*T**2+4.475419E-08*T**3
    +3.727699E+04*T**(-1)-0.5*SERHF#-0.5*SERV#; 6000.00 N !
PARAMETER G(BCC,HF:W;0) 1.00 -1.090621E+06+1.237830E+02*T
    -2.507951E+01*T*LN(T)-1.426135E-04*T**2+3.459246E-08*T**3
    +2.621493E+04*T**(-1)-0.5*SERHF#-0.5*SERW#; 6000.00 N !
PARAMETER G(BCC,HF:ZR;0) 1.00 -8.764136E+05+9.316197E+01*T
    -1.951879E+01*T*LN(T)+1.788504E-03*T**2-6.309124E-07*T**3
    +2.465042E+04*T**(-1)-0.5*SERHF#-0.5*SERZR#; 6000.00 N !
PARAMETER G(BCC,MN:AL;0) 1.00 -6.355000E+05+1.238000E+02*T
    -2.260000E+01*T*LN(T)+5.018000E-03*T**2-2.038000E-06*T**3
    +1.950000E+04*T**(-1)-0.5*SERAL#-0.5*SERMN#; 6000.00 N !
PARAMETER G(BCC,MN:CO;0) 1.00 -7.422000E+05+6.760000E+01*T
    -1.258000E+01*T*LN(T)-3.553000E-03*T**2+5.056000E-07*T**3
    +8.490000E+03*T**(-1)-0.5*SERCO#-0.5*SERMN#; 6000.00 N !
PARAMETER G(BCC,MN:CR;0) 1.00 -8.849000E+05+1.037000E+02*T
    -1.894000E+01*T*LN(T)-6.198000E-03*T**2+6.273000E-07*T**3
    +1.396000E+04*T**(-1)-0.5*SERCR#-0.5*SERMN#; 6000.00 N !
PARAMETER G(BCC,MN:CU;0) 1.00 -6.494406E+05+1.529508E+03*T
    -2.320758E+02*T*LN(T)+1.618689E-01*T**2-2.168537E-05*T**3
    +2.108386E+06*T**(-1)-0.5*SERMN#-0.5*SERCU#; 6000.00 N !
PARAMETER G(BCC,MN:FE;0) 1.00 -8.236185E+05+1.043885E+02*T
    -1.893197E+01*T*LN(T)-6.219905E-03*T**2+6.662545E-07*T**3
    +1.444761E+04*T**(-1)-0.5*SERMN#-0.5*SERFE#; 6000.00 N !
PARAMETER G(BCC,MN:HF;0) 1.00 -9.297796E+05+1.318834E+02*T
    -2.498200E+01*T*LN(T)-5.559806E-04*T**2+1.542584E-08*T**3
    +4.434618E+04*T**(-1)-0.5*SERMN#-0.5*SERHF#; 6000.00 N !
PARAMETER G(BCC,MN:MN;0) 1.00 -8.544266E+05+1.052247E+02*T
    -2.019749E+01*T*LN(T)-4.467407E-03*T**2+7.377775E-07*T**3
    +1.177798E+04*T**(-1)-0.5*SERMN#-0.5*SERMN#; 6000.00 N !
PARAMETER G(BCC,MN:MO;0) 1.00 -9.450000E+05+5.039000E+01*T
    -1.220000E+01*T*LN(T)-9.409000E-03*T**2+9.116000E-07*T**3
    -4.339000E+04*T**(-1)-0.5*SERMN#-0.5*SERMO#; 6000.00 N !
PARAMETER G(BCC,MN:NB;0) 1.00 -9.331281E+05+1.379644E+02*T
    -2.437471E+01*T*LN(T)-9.718244E-04*T**2+6.970749E-08*T**3
    +7.866894E+04*T**(-1)-0.5*SERMN#-0.5*SERNB#; 6000.00 N !
PARAMETER G(BCC,MN:NI;0) 1.00 -6.673399E+05+7.940610E+01*T
    -1.483501E+01*T*LN(T)-3.888668E-03*T**2+5.615191E-07*T**3
    +9.809648E+03*T**(-1)-0.5*SERMN#-0.5*SERNI#; 6000.00 N !
PARAMETER G(BCC,MN:RE;0) 1.00 -1.018991E+06+8.617862E+01*T
    -1.680181E+01*T*LN(T)-6.389961E-03*T**2+1.046339E-06*T**3
    +9.246101E+03*T**(-1)-0.5*SERMN#-0.5*SERRE#; 6000.00 N !
PARAMETER G(BCC,MN:TA;0) 1.00 -1.030000E+06+6.126000E+01*T
    -1.331000E+01*T*LN(T)-1.030000E-02*T**2+1.321000E-06*T**3
    -4.595000E+04*T**(-1)-0.5*SERMN#-0.5*SERTA#; 6000.00 N !
PARAMETER G(BCC,MN:TI;0) 1.00 -8.291000E+05+6.735000E+01*T
    -1.356000E+01*T*LN(T)-9.174000E-03*T**2+8.899000E-07*T**3
    -3.775000E+04*T**(-1)-0.5*SERMN#-0.5*SERTI#; 6000.00 N !
PARAMETER G(BCC,MN:V;0) 1.00 -8.872000E+05+6.036000E+01*T
    -1.200000E+01*T*LN(T)-9.430000E-03*T**2+5.465000E-07*T**3
    -4.048000E+04*T**(-1)-0.5*SERMN#-0.5*SERV#; 6000.00 N !
PARAMETER G(BCC,MN:W;0) 1.00 -1.050187E+06+1.132318E+02*T
    -2.226831E+01*T*LN(T)-2.601725E-03*T**2+4.638253E-07*T**3
    +1.135826E+04*T**(-1)-0.5*SERMN#-0.5*SERW#; 6000.00 N !
PARAMETER G(BCC,MN:ZR;0) 1.00 -8.481902E+05+1.325194E+02*T
    -2.417524E+01*T*LN(T)-5.318344E-03*T**2+7.659751E-07*T**3
    +1.079869E+05*T**(-1)-0.5*SERMN#-0.5*SERZR#; 6000.00 N !
PARAMETER G(BCC,MO:AL;0) 1.00 -6.949000E+05+2.723000E+01*T
    -6.197000E+00*T*LN(T)-1.341000E-02*T**2+1.399000E-06*T**3
    -3.166000E+04*T**(-1)-0.5*SERAL#-0.5*SERMO#; 6000.00 N !
PARAMETER G(BCC,MO:CO;0) 1.00 -8.421405E+05+4.594989E+01*T
    -8.793804E+00*T*LN(T)-2.916725E-02*T**2+5.341492E-06*T**3
    +5.196397E+03*T**(-1)-0.5*SERMO#-0.5*SERCO#; 6000.00 N !
PARAMETER G(BCC,MO:CR;0) 1.00 -9.755000E+05+6.269000E+01*T
    -1.304000E+01*T*LN(T)-9.773000E-03*T**2+1.010000E-06*T**3
    -4.468000E+04*T**(-1)-0.5*SERCR#-0.5*SERMO#; 6000.00 N !
PARAMETER G(BCC,MO:CU;0) 1.00 -6.569897E+05+8.354155E+01*T
    -1.599066E+01*T*LN(T)-3.240594E-03*T**2+5.148989E-07*T**3
    +9.327551E+03*T**(-1)-0.5*SERMO#-0.5*SERCU#; 6000.00 N !
PARAMETER G(BCC,MO:FE;0) 1.00 -9.077000E+05+6.778000E+01*T
    -1.472000E+01*T*LN(T)-9.163000E-03*T**2+1.020000E-06*T**3
    -4.156000E+04*T**(-1)-0.5*SERFE#-0.5*SERMO#; 6000.00 N !
PARAMETER G(BCC,MO:HF;0) 1.00 -9.763518E+05-5.282147E+02*T
    +7.885846E+01*T*LN(T)-1.004775E-01*T**2+1.572497E-05*T**3
    -1.297091E+06*T**(-1)-0.5*SERMO#-0.5*SERHF#; 6000.00 N !
PARAMETER G(BCC,MO:MN;0) 1.00 -9.450000E+05+5.039000E+01*T
    -1.220000E+01*T*LN(T)-9.409000E-03*T**2+9.116000E-07*T**3
    -4.339000E+04*T**(-1)-0.5*SERMN#-0.5*SERMO#; 6000.00 N !
PARAMETER G(BCC,MO:MO;0) 1.00 -1.050284E+06+9.946146E+01*T
    -1.829393E+01*T*LN(T)-7.153946E-03*T**2+1.036608E-06*T**3
    +1.298411E+04*T**(-1)-1*SERMO#; 6000.00 N !
PARAMETER G(BCC,MO:NB;0) 1.00 -1.026098E+06+1.387363E+02*T
    -2.509529E+01*T*LN(T)-5.877354E-04*T**2+9.169411E-08*T**3
    +6.831831E+04*T**(-1)-0.5*SERMO#-0.5*SERNB#; 6000.00 N !
PARAMETER G(BCC,MO:NI;0) 1.00 -7.655000E+05+3.523000E+01*T
    -8.698000E+00*T*LN(T)-6.218000E-03*T**2+6.822000E-07*T**3
    -3.501000E+04*T**(-1)-0.5*SERMO#-0.5*SERNI#; 6000.00 N !
PARAMETER G(BCC,MO:RE;0) 1.00 -1.114000E+06+6.349000E+01*T
    -1.505000E+01*T*LN(T)-9.255000E-03*T**2+1.215000E-06*T**3
    -5.131000E+04*T**(-1)-0.5*SERMO#-0.5*SERRE#; 6000.00 N !
PARAMETER G(BCC,MO:TA;0) 1.00 -1.117000E+06+6.064000E+01*T
    -1.352000E+01*T*LN(T)-9.462000E-03*T**2+1.058000E-06*T**3
    -5.027000E+04*T**(-1)-0.5*SERMO#-0.5*SERTA#; 6000.00 N !
PARAMETER G(BCC,MO:TI;0) 1.00 -9.056000E+05+1.209000E+02*T
    -2.315000E+01*T*LN(T)-1.915000E-03*T**2+3.347000E-08*T**3
    +1.450000E+04*T**(-1)-0.5*SERMO#-0.5*SERTI#; 6000.00 N !