$ DATABASE FILE WRITTEN 2010-01-28
$ END-MEMBER OF AB3-FCC BASED ALLOY, AB INITIO CALC FULLY RELAXED. 
$ ELEMENT MASS FROM BULL. ALLOY PHASE DIAGRAM VOL. 9 NO 3 1988/JOA 880916
$-------------------------------------------------------------------
$ ELEMENT NAME  REF. STATE ATOMIC MASS H298 S298 !

ELEMENT VA VACUUM 0.0 0.0 0.0 !
ELEMENT /- ELECTRON_GAS 0.0 0.0 0.0 !
ELEMENT AG FCC_A1 107.8682 5744.632 42.5513!
ELEMENT AL FCC_A1 26.981539 4577.296 28.3215!
$ELEMENT AR 1_MOLE_AR1(G) 39.948 0.0 0.0 !
ELEMENT AU FCC_A1 196.96654 6016.592 47.4884!
ELEMENT BI RHOMBOHEDRAL_A7 208.98037 6426.624 56.735!
ELEMENT CA FCC_A1 40.078 6196.504 41.58896!
ELEMENT CD HCP_A3 112.411 6250.896 51.7979!
ELEMENT CE FCC_A1 140.115 0.0 0.0 !
ELEMENT CO HCP_A3 58.93320 0.0 0.0 !
ELEMENT CR BCC_A2 51.9961 4050 23.56 !
ELEMENT CU FCC_A1 63.546 5004.064 33.1498!
ELEMENT DY HCP_A3 162.50 0.0 0.0 !
ELEMENT ER HCP_A3 167.26 7392.2912 73.17816!
ELEMENT EU BCC_A2 151.965 0.0 80.79304!
ELEMENT FE BCC_A2 55.847 4489 27.28 !
ELEMENT GD HCP_A3 157.25 0.0 0.0 !
ELEMENT HF HCP_A3 178.49 0.0 0.0 !
ELEMENT HO HCP_A3 164.93032 0.0 0.0 !
ELEMENT IN TETRAGONAL_A6 114.82 6610 57.65!
ELEMENT IR FCC_A1 192.22 5267.656 35.5054!
ELEMENT LA DOUBLE_HCP(ABAC) 138.9055 0.0 0.0 !
ELEMENT LI BCC_A2 6.941 4623.32 29.0955!
ELEMENT LU HCP_A3 174.967 0.0 0.0 !
ELEMENT MG HCP_A3 24.3050 4998.0 32.671!
ELEMENT MN CBCC_A12 54.93805 4996 32.0076!
ELEMENT MO BCC_A2 95.94 4589 28.56 !
ELEMENT NB BCC_A2 92.90638 5220 36.27!
ELEMENT ND DOUBLE_HCP(ABAC) 144.24 0.0 0.0 !
ELEMENT NI FCC_A1 58.69 4787 29.796 !
ELEMENT OS HCP_A3 190.2 0.0 32.6352!
ELEMENT PB FCC_A1 207.2 6878.496 64.7851!
ELEMENT PD FCC_A1 106.42 5468.488 37.8234!
ELEMENT PR DOUBLE_HCP(ABAC) 140.90765 0.0 0.0 !
ELEMENT PT FCC_A1 195.08 5723.712 41.6308!
ELEMENT RE HCP_A3 186.207 5355.52 36.5263!
ELEMENT RH FCC_A1 102.90550 4920.384 31.5055!
ELEMENT RU HCP_A3 101.07 4602.4 28.5349!
ELEMENT SB RHOMBOHEDRAL_A7 121.75 5870.152 45.5219!
ELEMENT SC HCP_A3 44.955910 0.0 0.0 !
ELEMENT SM RHOMBOHEDRAL 150.36 0.0 0.0 !
ELEMENT SN BCT_A5 118.710 6322.024 51.1954!
ELEMENT TA BCC_A2 180.9479 5681.872 41.4718!
ELEMENT TB HCP_A3 158.92534 0.0 0.0 !
ELEMENT TI HCP_A3 47.88 4810 30.648!
ELEMENT TM HCP_A3 168.93421 7397.312 74.01496!
ELEMENT V  BCC_A2 50.9415 4507 30.89!
ELEMENT W BCC_A2 183.85 4970.0 32.62 !
$ELEMENT XE MONOATOMIC_GAS 131.29 0.0 0.0 !
ELEMENT Y  HCP_A3 88.90585 0.0 0.0 !
ELEMENT YB FCC_A1 173.04 0.0 0.0 !
ELEMENT ZN HCP_A3 65.39 5656.768 41.6308!
ELEMENT ZR HCP_A3 91.224 5566.27 39.181!


 
 TYPE_DEFINITION % SEQ *!
 DEFINE_SYSTEM_DEFAULT SPECIE 2 !
 DEFAULT_COMMAND DEF_SYS_ELEMENT VA !
 
 PHASE FCC  %  2 0.25   0.75    !

$$ THIS IS THE FCC-AB3 TYPE

 CONSTITUENT FCC:  AG,AL,AU,BI,CA,CD,CE,CO,CR,CU,DY,ER,EU,FE,GD,HF,HO,
                  IN,IR,LA,LI,LU,MG,MN,MO,NB,ND,NI,OS,PB,PD,PR,PT,RE,
		  RH,RU,SB,SC,SM,SN,TA,TB,TI,TM,V,W,Y,YB,ZN,ZR:
                  AG,AL,AU,BI,CA,CD,CE,CO,CR,CU,DY,ER,EU,FE,GD,HF,HO,
                  IN,IR,LA,LI,LU,MG,MN,MO,NB,ND,NI,OS,PB,PD,PR,PT,RE,
		  RH,RU,SB,SC,SM,SN,TA,TB,TI,TM,V,W,Y,YB,ZN,ZR: !
		  

$ FOR THE 19 ELEMENT, 19*19 (from Ag to Zr)end member calc.ed by Zhang Wenjun,
$ then we add the rest 31 end member compounds. from Bi to Zn

PARAMETER G(FCC,AG:AG;0) 1.00   0;         6.0E+03 N REF: 0 !
PARAMETER G(FCC,AG:AL;0) 1.00   3456.5751; 6.0E+03 N REF: 0 !
PARAMETER G(FCC,AG:AU;0) 1.00   -4411.7766; 6.0E+03 N REF: 0 !
PARAMETER G(FCC,AG:CR;0) 1.00   61757.6364; 6.0E+03 N REF: 0 !
PARAMETER G(FCC,AG:CU;0) 1.00   7885.2366; 6.0E+03 N REF: 0 !
PARAMETER G(FCC,AG:FE;0) 1.00   41271.4588; 6.0E+03 N REF: 0 !
PARAMETER G(FCC,AG:HF;0) 1.00   9701.477314; 6.0E+03 N REF: 0 !
PARAMETER G(FCC,AG:MN;0) 1.00   63262.8024; 6.0E+03 N REF: 0 !
PARAMETER G(FCC,AG:MO;0) 1.00   -31237.0188; 6.0E+03 N REF: 0 !
PARAMETER G(FCC,AG:NB;0) 1.00   34413.7874; 6.0E+03 N REF: 0 !
PARAMETER G(FCC,AG:NI;0) 1.00   19849.3766; 6.0E+03 N REF: 0 !
PARAMETER G(FCC,AG:PB;0) 1.00   8114.3885; 6.0E+03 N REF: 0 !
PARAMETER G(FCC,AG:PD;0) 1.00   -2127.4943; 6.0E+03 N REF: 0 !
PARAMETER G(FCC,AG:SB;0) 1.00   27973.5035; 6.0E+03 N REF: 0 !
PARAMETER G(FCC,AG:SN;0) 1.00   -131889.3884; 6.0E+03 N REF: 0 !
PARAMETER G(FCC,AG:TI;0) 1.00   9826.9973; 6.0E+03 N REF: 0 !
PARAMETER G(FCC,AG:V;0) 1.00    37551.9620; 6.0E+03 N REF: 0 !
PARAMETER G(FCC,AG:W;0) 1.00    54055.7213; 6.0E+03 N REF: 0 !
PARAMETER G(FCC,AG:ZR;0) 1.00   2055.137103; 6.0E+03 N REF: 0 !

PARAMETER G(FCC,AG:BI;0) 1.00  18074.87275 ; 6.0E+03 N REF: 0 !
PARAMETER G(FCC,AG:CA;0) 1.00  212939.9829 ; 6.0E+03 N REF: 0 !
PARAMETER G(FCC,AG:CD;0) 1.00  -1447.019315; 6.0E+03 N REF: 0 !
PARAMETER G(FCC,AG:CE;0) 1.00  83735.49622 ; 6.0E+03 N REF: 0 !
PARAMETER G(FCC,AG:CO;0) 1.00  44653.57158 ; 6.0E+03 N REF: 0 !
PARAMETER G(FCC,AG:DY;0) 1.00  -76.898545  ; 6.0E+03 N REF: 0 !
PARAMETER G(FCC,AG:ER;0) 1.00  788.378935  ; 6.0E+03 N REF: 0 !
PARAMETER G(FCC,AG:EU;0) 1.00  595423.8178 ; 6.0E+03 N REF: 0 !
PARAMETER G(FCC,AG:GD;0) 1.00  -1004.288244; 6.0E+03 N REF: 0 !
PARAMETER G(FCC,AG:HO;0) 1.00  381.1881138 ; 6.0E+03 N REF: 0 !
PARAMETER G(FCC,AG:IN;0) 1.00  4384.66434  ; 6.0E+03 N REF: 0 !
PARAMETER G(FCC,AG:IR;0) 1.00  46297.53125 ; 6.0E+03 N REF: 0 !
PARAMETER G(FCC,AG:LA;0) 1.00  -804.7090212 ; 6.0E+03 N REF: 0 !
PARAMETER G(FCC,AG:LI;0) 1.00  -14165.96147; 6.0E+03 N REF: 0 !
PARAMETER G(FCC,AG:LU;0) 1.00  1042.761637 ; 6.0E+03 N REF: 0 !
PARAMETER G(FCC,AG:MG;0) 1.00  -10467.5274 ; 6.0E+03 N REF: 0 !
PARAMETER G(FCC,AG:ND;0) 1.00  9.6485      ; 6.0E+03 N REF: 0 !
PARAMETER G(FCC,AG:OS;0) 1.00  1680683.263 ; 6.0E+03 N REF: 0 !
PARAMETER G(FCC,AG:PR;0) 1.00  18.13918    ; 6.0E+03 N REF: 0 !
PARAMETER G(FCC,AG:PT;0) 1.00  2466.952601 ; 6.0E+03 N REF: 0 !
PARAMETER G(FCC,AG:RE;0) 1.00  -108099.3819; 6.0E+03 N REF: 0 !
PARAMETER G(FCC,AG:RH;0) 1.00  26911.90978 ; 6.0E+03 N REF: 0 !
PARAMETER G(FCC,AG:RU;0) 1.00  60914.45396 ; 6.0E+03 N REF: 0 !
PARAMETER G(FCC,AG:SC;0) 1.00  -3888.683197; 6.0E+03 N REF: 0 !
PARAMETER G(FCC,AG:SM;0) 1.00  -0.482425   ; 6.0E+03 N REF: 0 !
PARAMETER G(FCC,AG:TA;0) 1.00  28562.45455 ; 6.0E+03 N REF: 0 !
PARAMETER G(FCC,AG:TB;0) 1.00  -623.2931   ; 6.0E+03 N REF: 0 !
PARAMETER G(FCC,AG:TM;0) 1.00  927.7273962 ; 6.0E+03 N REF: 0 !
PARAMETER G(FCC,AG:Y;0) 1.00  505.7502487 ; 6.0E+03 N REF: 0 !
PARAMETER G(FCC,AG:YB;0) 1.00  -2696.234731; 6.0E+03 N REF: 0 !
PARAMETER G(FCC,AG:ZN;0) 1.00  -1352.99709 ; 6.0E+03 N REF: 0 !


PARAMETER G(FCC,AL:AG;0) 1.00   -4619.2194; 6.0E+03 N REF: 0 !
PARAMETER G(FCC,AL:AL;0) 1.00   0 ;         6.0E+03 N REF: 0 !
PARAMETER G(FCC,AL:AU;0) 1.00   57717.3270; 6.0E+03 N REF: 0 !
PARAMETER G(FCC,AL:CR;0) 1.00   15869.3704; 6.0E+03 N REF: 0 !
PARAMETER G(FCC,AL:CU;0) 1.00   -17249.1059; 6.0E+03 N REF: 0 !
PARAMETER G(FCC,AL:FE;0) 1.00   -23602.6431; 6.0E+03 N REF: 0 !
PARAMETER G(FCC,AL:HF;0) 1.00   -22223.09963; 6.0E+03 N REF: 0 !
PARAMETER G(FCC,AL:MO;0) 1.00   -66275.5465; 6.0E+03 N REF: 0 !
PARAMETER G(FCC,AL:NB;0) 1.00   -1748.7906; 6.0E+03 N REF: 0 !
PARAMETER G(FCC,AL:NI;0) 1.00   -46397.2244; 6.0E+03 N REF: 0 !
PARAMETER G(FCC,AL:PB;0) 1.00   16675.0201; 6.0E+03 N REF: 0 !
PARAMETER G(FCC,AL:PD;0) 1.00   -58923.3895; 6.0E+03 N REF: 0 !
PARAMETER G(FCC,AL:SB;0) 1.00   26424.91428; 6.0E+03 N REF: 0 !
PARAMETER G(FCC,AL:SN;0) 1.00   -126329.4224; 6.0E+03 N REF: 0 !
PARAMETER G(FCC,AL:TI;0) 1.00   -25455.1551; 6.0E+03 N REF: 0 !
PARAMETER G(FCC,AL:V;0) 1.00    -5779.4515; 6.0E+03 N REF: 0 !
PARAMETER G(FCC,AL:W;0) 1.00    20647.7900; 6.0E+03 N REF: 0 !
PARAMETER G(FCC,AL:ZR;0) 1.00   -29266.406; 6.0E+03 N REF: 0 !
PARAMETER G(FCC,AL:MN;0) 1.00    12019.61; 6.0E+03 N REF: 0 !

PARAMETER G(FCC,AL:BI;0) 1.00  21156.26595  ; 6.0E+03 N REF: 0 !
PARAMETER G(FCC,AL:CA;0) 1.00  -2072.548455 ; 6.0E+03 N REF: 0 !
PARAMETER G(FCC,AL:CD;0) 1.00  9646.42316   ; 6.0E+03 N REF: 0 !
PARAMETER G(FCC,AL:CE;0) 1.00  68164.57807  ; 6.0E+03 N REF: 0 !
PARAMETER G(FCC,AL:CO;0) 1.00  -28730.31433 ; 6.0E+03 N REF: 0 !
PARAMETER G(FCC,AL:DY;0) 1.00  -19023.68212 ; 6.0E+03 N REF: 0 !
PARAMETER G(FCC,AL:ER;0) 1.00  -18763.51031 ; 6.0E+03 N REF: 0 !
PARAMETER G(FCC,AL:EU;0) 1.00  598071.3083  ; 6.0E+03 N REF: 0 !
PARAMETER G(FCC,AL:GD;0) 1.00  -19293.35769 ; 6.0E+03 N REF: 0 !
PARAMETER G(FCC,AL:HO;0) 1.00  -18898.58931 ; 6.0E+03 N REF: 0 !
PARAMETER G(FCC,AL:IN;0) 1.00  11383.54151  ; 6.0E+03 N REF: 0 !
PARAMETER G(FCC,AL:IR;0) 1.00  -32846.2197  ; 6.0E+03 N REF: 0 !
PARAMETER G(FCC,AL:LA;0) 1.00  -18123.47707  ; 6.0E+03 N REF: 0 !
PARAMETER G(FCC,AL:LI;0) 1.00  -4299.427079 ; 6.0E+03 N REF: 0 !
PARAMETER G(FCC,AL:LU;0) 1.00  -18571.62577 ; 6.0E+03 N REF: 0 !
PARAMETER G(FCC,AL:MG;0) 1.00  34.4933875   ; 6.0E+03 N REF: 0 !
PARAMETER G(FCC,AL:ND;0) 1.00  -16546.91217  ; 6.0E+03 N REF: 0 !
PARAMETER G(FCC,AL:OS;0) 1.00  20949.83629  ; 6.0E+03 N REF: 0 !
PARAMETER G(FCC,AL:PR;0) 1.00  -16104.57668  ; 6.0E+03 N REF: 0 !
PARAMETER G(FCC,AL:PT;0) 1.00  -66761.8309  ; 6.0E+03 N REF: 0 !
PARAMETER G(FCC,AL:RE;0) 1.00  -144427.4799 ; 6.0E+03 N REF: 0 !
PARAMETER G(FCC,AL:RH;0) 1.00  -44750.10482 ; 6.0E+03 N REF: 0 !
PARAMETER G(FCC,AL:RU;0) 1.00  -1656.189146 ; 6.0E+03 N REF: 0 !
PARAMETER G(FCC,AL:SC;0) 1.00  -24224.19949 ; 6.0E+03 N REF: 0 !
PARAMETER G(FCC,AL:SM;0) 1.00  -17316.86247 ; 6.0E+03 N REF: 0 !
PARAMETER G(FCC,AL:TA;0) 1.00  -5337.960261 ; 6.0E+03 N REF: 0 !
PARAMETER G(FCC,AL:TB;0) 1.00  -19224.56389 ; 6.0E+03 N REF: 0 !
PARAMETER G(FCC,AL:TM;0) 1.00  -18752.3663  ; 6.0E+03 N REF: 0 !
PARAMETER G(FCC,AL:Y;0) 1.00  -18745.61235 ; 6.0E+03 N REF: 0 !
PARAMETER G(FCC,AL:YB;0) 1.00  5126.629166  ; 6.0E+03 N REF: 0 !
PARAMETER G(FCC,AL:ZN;0) 1.00  1232.212     ; 6.0E+03 N REF: 0 !

PARAMETER G(FCC,AU:AG;0) 1.00   -4185.0369; 6.0E+03 N REF: 0 !
PARAMETER G(FCC,AU:AL;0) 1.00   -11298.3935; 6.0E+03 N REF: 0 !
PARAMETER G(FCC,AU:AU;0) 1.00   0; 6.0E+03 N REF: 0 !
PARAMETER G(FCC,AU:CR;0) 1.00   35108.4794; 6.0E+03 N REF: 0 !
PARAMETER G(FCC,AU:CU;0) 1.00   -4030.6609; 6.0E+03 N REF: 0 !
PARAMETER G(FCC,AU:FE;0) 1.00   16747.3839; 6.0E+03 N REF: 0 !
PARAMETER G(FCC,AU:HF;0) 1.00   181640.7119; 6.0E+03 N REF: 0 !
PARAMETER G(FCC,AU:MO;0) 1.00   -55025.3955; 6.0E+03 N REF: 0 !
PARAMETER G(FCC,AU:NB;0) 1.00   8806.6684; 6.0E+03 N REF: 0 !
PARAMETER G(FCC,AU:NI;0) 1.00   6908.3260; 6.0E+03 N REF: 0 !
PARAMETER G(FCC,AU:PB;0) 1.00   2740.1740; 6.0E+03 N REF: 0 !
PARAMETER G(FCC,AU:PD;0) 1.00   -4590.2739; 6.0E+03 N REF: 0 !
PARAMETER G(FCC,AU:SB;0) 1.00   25819.46896; 6.0E+03 N REF: 0 !
PARAMETER G(FCC,AU:SN;0) 1.00   -137244.3231; 6.0E+03 N REF: 0 !
PARAMETER G(FCC,AU:TI;0) 1.00   -22080.5923; 6.0E+03 N REF: 0 !
PARAMETER G(FCC,AU:V;0) 1.00    7935.8913; 6.0E+03 N REF: 0 !
PARAMETER G(FCC,AU:W;0) 1.00    31936.5350; 6.0E+03 N REF: 0 !
PARAMETER G(FCC,AU:ZR;0) 1.00   -24533.8022; 6.0E+03 N REF: 0 !
PARAMETER G(FCC,AU:MN;0) 1.00  37334.8707; 6.0E+03 N REF: 0 !

PARAMETER G(FCC,AU:BI;0) 1.00  14272.59187  ; 6.0E+03 N REF: 0 !
PARAMETER G(FCC,AU:CA;0) 1.00  -3379694.671 ; 6.0E+03 N REF: 0 !
PARAMETER G(FCC,AU:CD;0) 1.00  107514.8444  ; 6.0E+03 N REF: 0 !
PARAMETER G(FCC,AU:CE;0) 1.00  63296.86158  ; 6.0E+03 N REF: 0 !
PARAMETER G(FCC,AU:CO;0) 1.00  26389.80532  ; 6.0E+03 N REF: 0 !
PARAMETER G(FCC,AU:DY;0) 1.00  -25086.14824 ; 6.0E+03 N REF: 0 !
PARAMETER G(FCC,AU:ER;0) 1.00  -25095.2902  ; 6.0E+03 N REF: 0 !
PARAMETER G(FCC,AU:EU;0) 1.00  571920.4578  ; 6.0E+03 N REF: 0 !
PARAMETER G(FCC,AU:GD;0) 1.00  -25130.96553 ; 6.0E+03 N REF: 0 !
PARAMETER G(FCC,AU:HO;0) 1.00  -24995.95889 ; 6.0E+03 N REF: 0 !
PARAMETER G(FCC,AU:IN;0) 1.00  -2528.847729 ; 6.0E+03 N REF: 0 !
PARAMETER G(FCC,AU:IR;0) 1.00   41384.10499 ; 6.0E+03 N REF: 0 !
PARAMETER G(FCC,AU:LA;0) 1.00  -23206.49984 ; 6.0E+03 N REF: 0 !
PARAMETER G(FCC,AU:LI;0) 1.00  -36312.56393 ; 6.0E+03 N REF: 0 !
PARAMETER G(FCC,AU:LU;0) 1.00  -25824.18613 ; 6.0E+03 N REF: 0 !
PARAMETER G(FCC,AU:MG;0) 1.00  -33587.34511 ; 6.0E+03 N REF: 0 !
PARAMETER G(FCC,AU:ND;0) 1.00  -21782.59833 ; 6.0E+03 N REF: 0 !
PARAMETER G(FCC,AU:OS;0) 1.00  68732.77824  ; 6.0E+03 N REF: 0 !
PARAMETER G(FCC,AU:PR;0) 1.00  -21157.61674 ; 6.0E+03 N REF: 0 !
PARAMETER G(FCC,AU:PT;0) 1.00  4837.709657  ; 6.0E+03 N REF: 0 !
PARAMETER G(FCC,AU:RE;0) 1.00  -128259.6332 ; 6.0E+03 N REF: 0 !
PARAMETER G(FCC,AU:RH;0) 1.00  18538.67614  ; 6.0E+03 N REF: 0 !
PARAMETER G(FCC,AU:RU;0) 1.00  42365.74338  ; 6.0E+03 N REF: 0 !
PARAMETER G(FCC,AU:SC;0) 1.00  -34145.53495 ; 6.0E+03 N REF: 0 !
PARAMETER G(FCC,AU:SM;0) 1.00  -22902.93391 ; 6.0E+03 N REF: 0 !
PARAMETER G(FCC,AU:TA;0) 1.00  2991.638031  ; 6.0E+03 N REF: 0 !
PARAMETER G(FCC,AU:TB;0) 1.00  -25189.91786 ; 6.0E+03 N REF: 0 !
PARAMETER G(FCC,AU:TM;0) 1.00  -25419.4798  ; 6.0E+03 N REF: 0 !
PARAMETER G(FCC,AU:Y;0) 1.00  -24488.42367 ; 6.0E+03 N REF: 0 !
PARAMETER G(FCC,AU:YB;0) 1.00  -26062.84178 ; 6.0E+03 N REF: 0 !
PARAMETER G(FCC,AU:ZN;0) 1.00  -12199.97587  ; 6.0E+03 N REF: 0 !

		     
PARAMETER G(FCC,CR:AG;0) 1.00   78659.3963; 6.0E+03 N REF: 0 !
PARAMETER G(FCC,CR:AL;0) 1.00   2513.4343; 6.0E+03 N REF: 0 !
PARAMETER G(FCC,CR:AU;0) 1.00   54311.4065; 6.0E+03 N REF: 0 !
PARAMETER G(FCC,CR:CR;0) 1.00   37354.1678; 6.0E+03 N REF: 0 !
PARAMETER G(FCC,CR:CU;0) 1.00   50191.4970; 6.0E+03 N REF: 0 !
PARAMETER G(FCC,CR:FE;0) 1.00   -24005.4680; 6.0E+03 N REF: 0 !
PARAMETER G(FCC,CR:HF;0) 1.00   34802.13071; 6.0E+03 N REF: 0 !
PARAMETER G(FCC,CR:MO;0) 1.00   -29239.7793; 6.0E+03 N REF: 0 !
PARAMETER G(FCC,CR:NB;0) 1.00   53828.9815; 6.0E+03 N REF: 0 !
PARAMETER G(FCC,CR:NI;0) 1.00   6886.6169; 6.0E+03 N REF: 0 !
PARAMETER G(FCC,CR:PB;0) 1.00   -122813.3444; 6.0E+03 N REF: 0 !
PARAMETER G(FCC,CR:PD;0) 1.00   14446.2166; 6.0E+03 N REF: 0 !
PARAMETER G(FCC,CR:SB;0) 1.00   382292.8670; 6.0E+03 N REF: 0 !
PARAMETER G(FCC,CR:SN;0) 1.00   -69854.15837; 6.0E+03 N REF: 0 !
PARAMETER G(FCC,CR:TI;0) 1.00   20693.6204; 6.0E+03 N REF: 0 !
PARAMETER G(FCC,CR:V;0) 1.00    29753.5619; 6.0E+03 N REF: 0 !
PARAMETER G(FCC,CR:W;0) 1.00    48073.6513; 6.0E+03 N REF: 0 !
PARAMETER G(FCC,CR:ZR;0) 1.00   35928.71731; 6.0E+03 N REF: 0 !
PARAMETER G(FCC,CR:MN;0) 1.00  12564.7591; 6.0E+03 N REF: 0 !
		     
PARAMETER G(FCC,CR:BI;0) 1.00  164642.0522  ; 6.0E+03 N REF: 0 !
PARAMETER G(FCC,CR:CA;0) 1.00  -3229325.211 ; 6.0E+03 N REF: 0 !
PARAMETER G(FCC,CR:CD;0) 1.00  257884.3048  ; 6.0E+03 N REF: 0 !
PARAMETER G(FCC,CR:CE;0) 1.00  213666.322   ; 6.0E+03 N REF: 0 !
PARAMETER G(FCC,CR:CO;0) 1.00  176759.2657  ; 6.0E+03 N REF: 0 !
PARAMETER G(FCC,CR:DY;0) 1.00  125283.3121  ; 6.0E+03 N REF: 0 !
PARAMETER G(FCC,CR:ER;0) 1.00  125274.1702  ; 6.0E+03 N REF: 0 !
PARAMETER G(FCC,CR:EU;0) 1.00  722289.9181  ; 6.0E+03 N REF: 0 !
PARAMETER G(FCC,CR:GD;0) 1.00  125238.4949  ; 6.0E+03 N REF: 0 !
PARAMETER G(FCC,CR:HO;0) 1.00  125373.5015  ; 6.0E+03 N REF: 0 !
PARAMETER G(FCC,CR:IN;0) 1.00  147840.6126  ; 6.0E+03 N REF: 0 !
PARAMETER G(FCC,CR:IR;0) 1.00  191753.5654  ; 6.0E+03 N REF: 0 !
PARAMETER G(FCC,CR:LA;0) 1.00  127162.9605  ; 6.0E+03 N REF: 0 !
PARAMETER G(FCC,CR:LI;0) 1.00  114056.8964  ; 6.0E+03 N REF: 0 !
PARAMETER G(FCC,CR:LU;0) 1.00  124545.2742  ; 6.0E+03 N REF: 0 !
PARAMETER G(FCC,CR:MG;0) 1.00  116782.1153  ; 6.0E+03 N REF: 0 !
PARAMETER G(FCC,CR:ND;0) 1.00  128586.862   ; 6.0E+03 N REF: 0 !
PARAMETER G(FCC,CR:OS;0) 1.00  219102.2386  ; 6.0E+03 N REF: 0 !
PARAMETER G(FCC,CR:PR;0) 1.00  129211.8436  ; 6.0E+03 N REF: 0 !
PARAMETER G(FCC,CR:PT;0) 1.00  155207.17    ; 6.0E+03 N REF: 0 !
PARAMETER G(FCC,CR:RE;0) 1.00  22109.8272   ; 6.0E+03 N REF: 0 !
PARAMETER G(FCC,CR:RH;0) 1.00  168908.1365  ; 6.0E+03 N REF: 0 !
PARAMETER G(FCC,CR:RU;0) 1.00  192735.2038  ; 6.0E+03 N REF: 0 !
PARAMETER G(FCC,CR:SC;0) 1.00  116223.9254  ; 6.0E+03 N REF: 0 !
PARAMETER G(FCC,CR:SM;0) 1.00  127466.5265  ; 6.0E+03 N REF: 0 !
PARAMETER G(FCC,CR:TA;0) 1.00  153361.0984  ; 6.0E+03 N REF: 0 !
PARAMETER G(FCC,CR:TB;0) 1.00  125179.5425  ; 6.0E+03 N REF: 0 !
PARAMETER G(FCC,CR:TM;0) 1.00  124949.9806  ; 6.0E+03 N REF: 0 !
PARAMETER G(FCC,CR:Y;0) 1.00  125881.0367  ; 6.0E+03 N REF: 0 !
PARAMETER G(FCC,CR:YB;0) 1.00  124306.6186  ; 6.0E+03 N REF: 0 !
PARAMETER G(FCC,CR:ZN;0) 1.00  138169.4845  ; 6.0E+03 N REF: 0 !

PARAMETER G(FCC,CU:AG;0) 1.00   7137.4779; 6.0E+03 N REF: 0 !
PARAMETER G(FCC,CU:AL;0) 1.00   -3970.3578; 6.0E+03 N REF: 0 !
PARAMETER G(FCC,CU:AU;0) 1.00   -1845.2756; 6.0E+03 N REF: 0 !
PARAMETER G(FCC,CU:CR;0) 1.00   28320.7596; 6.0E+03 N REF: 0 !
PARAMETER G(FCC,CU:CU;0) 1.00   0; 6.0E+03 N REF: 0 !
PARAMETER G(FCC,CU:FE;0) 1.00   8517.2134; 6.0E+03 N REF: 0 !
PARAMETER G(FCC,CU:HF;0) 1.00   728261.5436; 6.0E+03 N REF: 0 !
PARAMETER G(FCC,CU:MO;0) 1.00   -53225.9503; 6.0E+03 N REF: 0 !
PARAMETER G(FCC,CU:NB;0) 1.00   24126.0743; 6.0E+03 N REF: 0 !
PARAMETER G(FCC,CU:NI;0) 1.00   344.9339; 6.0E+03 N REF: 0 !
PARAMETER G(FCC,CU:PB;0) 1.00   24815.9420; 6.0E+03 N REF: 0 !
PARAMETER G(FCC,CU:PD;0) 1.00   -6667.1135; 6.0E+03 N REF: 0 !
PARAMETER G(FCC,CU:SB;0) 1.00   39809.83891; 6.0E+03 N REF: 0 !
PARAMETER G(FCC,CU:SN;0) 1.00   -119220.8672; 6.0E+03 N REF: 0 !
PARAMETER G(FCC,CU:TI;0) 1.00   1642.6571; 6.0E+03 N REF: 0 !
PARAMETER G(FCC,CU:V;0) 1.00    14962.4114; 6.0E+03 N REF: 0 !
PARAMETER G(FCC,CU:W;0) 1.00    29881.4045; 6.0E+03 N REF: 0 !
PARAMETER G(FCC,CU:ZR;0) 1.00   2648.52176; 6.0E+03 N REF: 0 !
PARAMETER G(FCC,CU:MN;0) 1.00  27674.3101; 6.0E+03 N REF: 0 !

PARAMETER G(FCC,CU:BI;0) 1.00 33407.40058 ; 6.0E+03 N REF: 0 !
PARAMETER G(FCC,CU:CA;0) 1.00 14515.34572 ; 6.0E+03 N REF: 0 !
PARAMETER G(FCC,CU:CD;0) 1.00 8902.326016 ; 6.0E+03 N REF: 0 !
PARAMETER G(FCC,CU:CE;0) 1.00 98029.38715 ; 6.0E+03 N REF: 0 !
PARAMETER G(FCC,CU:CO;0) 1.00 16065.0902  ; 6.0E+03 N REF: 0 !
PARAMETER G(FCC,CU:DY;0) 1.00 11693.21012 ; 6.0E+03 N REF: 0 !
PARAMETER G(FCC,CU:ER;0) 1.00 12073.72284 ; 6.0E+03 N REF: 0 !
PARAMETER G(FCC,CU:EU;0) 1.00 613847.3584 ; 6.0E+03 N REF: 0 !
PARAMETER G(FCC,CU:GD;0) 1.00 11245.30263 ; 6.0E+03 N REF: 0 !
PARAMETER G(FCC,CU:HO;0) 1.00 11896.16632 ; 6.0E+03 N REF: 0 !
PARAMETER G(FCC,CU:IN;0) 1.00 17220.66692 ; 6.0E+03 N REF: 0 !
PARAMETER G(FCC,CU:IR;0) 1.00 20263.73146 ; 6.0E+03 N REF: 0 !
PARAMETER G(FCC,CU:LA;0) 1.00 12218.69155 ; 6.0E+03 N REF: 0 !
PARAMETER G(FCC,CU:LI;0) 1.00 1635.72709  ; 6.0E+03 N REF: 0 !
PARAMETER G(FCC,CU:LU;0) 1.00 11686.38381 ; 6.0E+03 N REF: 0 !
PARAMETER G(FCC,CU:MG;0) 1.00 1068.240914 ; 6.0E+03 N REF: 0 !
PARAMETER G(FCC,CU:ND;0) 1.00 13334.25112 ; 6.0E+03 N REF: 0 !
PARAMETER G(FCC,CU:OS;0) 1.00 53257.91091 ; 6.0E+03 N REF: 0 !
PARAMETER G(FCC,CU:PR;0) 1.00 13760.76306 ; 6.0E+03 N REF: 0 !
PARAMETER G(FCC,CU:PT;0) 1.00 -11672.24875; 6.0E+03 N REF: 0 !
PARAMETER G(FCC,CU:RE;0) 1.00 -137649.3604; 6.0E+03 N REF: 0 !
PARAMETER G(FCC,CU:RH;0) 1.00 8799.287273 ; 6.0E+03 N REF: 0 !
PARAMETER G(FCC,CU:RU;0) 1.00 36665.74727 ; 6.0E+03 N REF: 0 !
PARAMETER G(FCC,CU:SC;0) 1.00 3901.515703 ; 6.0E+03 N REF: 0 !
PARAMETER G(FCC,CU:SM;0) 1.00 12729.36254 ; 6.0E+03 N REF: 0 !
PARAMETER G(FCC,CU:TA;0) 1.00 15326.11158 ; 6.0E+03 N REF: 0 !
PARAMETER G(FCC,CU:TB;0) 1.00 11393.86541 ; 6.0E+03 N REF: 0 !
PARAMETER G(FCC,CU:TM;0) 1.00 11937.43778 ; 6.0E+03 N REF: 0 !
PARAMETER G(FCC,CU:Y;0) 1.00 13335.31246 ; 6.0E+03 N REF: 0 !
PARAMETER G(FCC,CU:YB;0) 1.00 15309.48722 ; 6.0E+03 N REF: 0 !
PARAMETER G(FCC,CU:ZN;0) 1.00 -4241.116369; 6.0E+03 N REF: 0 !
		     
PARAMETER G(FCC,FE:AG;0) 1.00   50427.8853; 6.0E+03 N REF: 0 !
PARAMETER G(FCC,FE:AL;0) 1.00   -22963.4300; 6.0E+03 N REF: 0 !
PARAMETER G(FCC,FE:AU;0) 1.00   35716.3349; 6.0E+03 N REF: 0 !
PARAMETER G(FCC,FE:CR;0) 1.00   12260.8314; 6.0E+03 N REF: 0 !
PARAMETER G(FCC,FE:CU;0) 1.00   24147.7834; 6.0E+03 N REF: 0 !
PARAMETER G(FCC,FE:FE;0) 1.00   -29857.2833; 6.0E+03 N REF: 0 !
PARAMETER G(FCC,FE:HF;0) 1.00   10413.05648; 6.0E+03 N REF: 0 !
PARAMETER G(FCC,FE:MO;0) 1.00   -54675.6374; 6.0E+03 N REF: 0 !
PARAMETER G(FCC,FE:NB;0) 1.00   29613.6586; 6.0E+03 N REF: 0 !
PARAMETER G(FCC,FE:NI;0) 1.00   1227.7716; 6.0E+03 N REF: 0 !
PARAMETER G(FCC,FE:PB;0) 1.00   66762.7957; 6.0E+03 N REF: 0 !
PARAMETER G(FCC,FE:PD;0) 1.00   12661.2441; 6.0E+03 N REF: 0 !
PARAMETER G(FCC,FE:SB;0) 1.00   361017.9245; 6.0E+03 N REF: 0 !
PARAMETER G(FCC,FE:SN;0) 1.00   -91097.8115; 6.0E+03 N REF: 0 !
PARAMETER G(FCC,FE:TI;0) 1.00   -4423.8373; 6.0E+03 N REF: 0 !
PARAMETER G(FCC,FE:V;0) 1.00    4414.1887; 6.0E+03 N REF: 0 !
PARAMETER G(FCC,FE:W;0) 1.00    22676.3871; 6.0E+03 N REF: 0 !
PARAMETER G(FCC,FE:ZR;0) 1.00   12625.10281; 6.0E+03 N REF: 0 !
PARAMETER G(FCC,FE:MN;0) 1.00  -3376.9750; 6.0E+03 N REF: 0 !

PARAMETER G(FCC,FE:BI;0) 1.00 66173.99604 ; 6.0E+03 N REF: 0 !
PARAMETER G(FCC,FE:CA;0) 1.00 54556.38192 ; 6.0E+03 N REF: 0 !
PARAMETER G(FCC,FE:CD;0) 1.00 27720.41548 ; 6.0E+03 N REF: 0 !
PARAMETER G(FCC,FE:CE;0) 1.00 127088.8601 ; 6.0E+03 N REF: 0 !
PARAMETER G(FCC,FE:CO;0) 1.00 -8347.086199; 6.0E+03 N REF: 0 !
PARAMETER G(FCC,FE:DY;0) 1.00 28107.5519  ; 6.0E+03 N REF: 0 !
PARAMETER G(FCC,FE:ER;0) 1.00 25822.98007 ; 6.0E+03 N REF: 0 !
PARAMETER G(FCC,FE:EU;0) 1.00 647990.1242 ; 6.0E+03 N REF: 0 !
PARAMETER G(FCC,FE:GD;0) 1.00 30250.02544 ; 6.0E+03 N REF: 0 !
PARAMETER G(FCC,FE:HO;0) 1.00 27002.34034 ; 6.0E+03 N REF: 0 !
PARAMETER G(FCC,FE:IN;0) 1.00 39320.91799 ; 6.0E+03 N REF: 0 !
PARAMETER G(FCC,FE:IR;0) 1.00 -11730.33272; 6.0E+03 N REF: 0 !
PARAMETER G(FCC,FE:LA;0) 1.00 35049.35819; 6.0E+03 N REF: 0 !
PARAMETER G(FCC,FE:LI;0) 1.00 47137.36081; 6.0E+03 N REF: 0 !
PARAMETER G(FCC,FE:LU;0) 1.00 21812.0745 ; 6.0E+03 N REF: 0 !
PARAMETER G(FCC,FE:MG;0) 1.00 24630.42547; 6.0E+03 N REF: 0 !
PARAMETER G(FCC,FE:ND;0) 1.00 38576.51209; 6.0E+03 N REF: 0 !
PARAMETER G(FCC,FE:OS;0) 1.00 4679.377773; 6.0E+03 N REF: 0 !
PARAMETER G(FCC,FE:PR;0) 1.00 40789.78151; 6.0E+03 N REF: 0 !
PARAMETER G(FCC,FE:PT;0) 1.00 -3916.470877; 6.0E+03 N REF: 0 !
PARAMETER G(FCC,FE:RE;0) 1.00 -170601.4483; 6.0E+03 N REF: 0 !
PARAMETER G(FCC,FE:RH;0) 1.00 -3819.961756; 6.0E+03 N REF: 0 !
PARAMETER G(FCC,FE:RU;0) 1.00 4466.218286 ; 6.0E+03 N REF: 0 !
PARAMETER G(FCC,FE:SC;0) 1.00 9318.666027 ; 6.0E+03 N REF: 0 !
PARAMETER G(FCC,FE:SM;0) 1.00 34829.73421 ; 6.0E+03 N REF: 0 !
PARAMETER G(FCC,FE:TA;0) 1.00 13778.56455 ; 6.0E+03 N REF: 0 !
PARAMETER G(FCC,FE:TB;0) 1.00 29094.40048 ; 6.0E+03 N REF: 0 !
PARAMETER G(FCC,FE:TM;0) 1.00 24265.80865 ; 6.0E+03 N REF: 0 !
PARAMETER G(FCC,FE:Y;0) 1.00 30674.89714 ; 6.0E+03 N REF: 0 !
PARAMETER G(FCC,FE:YB;0) 1.00 51113.26645 ; 6.0E+03 N REF: 0 !
PARAMETER G(FCC,FE:ZN;0) 1.00 -5992.996926; 6.0E+03 N REF: 0 !
 		     
PARAMETER G(FCC,HF:AG;0) 1.00   20490.22346; 6.0E+03 N REF: 0 !
PARAMETER G(FCC,HF:AL;0) 1.00  -35613.57217; 6.0E+03 N REF: 0 !
PARAMETER G(FCC,HF:AU;0) 1.00  -19469.16767; 6.0E+03 N REF: 0 !
PARAMETER G(FCC,HF:CR;0) 1.00   55613.28844; 6.0E+03 N REF: 0 !
PARAMETER G(FCC,HF:CU;0) 1.00   8668.360857; 6.0E+03 N REF: 0 !
PARAMETER G(FCC,HF:FE;0) 1.00   -21695.5662; 6.0E+03 N REF: 0 !
PARAMETER G(FCC,HF:HF;0) 1.00   7686.502221; 6.0E+03 N REF: 0 !
PARAMETER G(FCC,HF:MO;0) 1.00   -31676.97152; 6.0E+03 N REF: 0 !
PARAMETER G(FCC,HF:NB;0) 1.00   33450.61273 ; 6.0E+03 N REF: 0 !
PARAMETER G(FCC,HF:NI;0) 1.00   -55031.2408 ; 6.0E+03 N REF: 0 !
PARAMETER G(FCC,HF:PB;0) 1.00   27608.42721 ; 6.0E+03 N REF: 0 !
PARAMETER G(FCC,HF:PD;0) 1.00   -84657.05524; 6.0E+03 N REF: 0 !
PARAMETER G(FCC,HF:SB;0) 1.00   17007.10377 ; 6.0E+03 N REF: 0 !
PARAMETER G(FCC,HF:SN;0) 1.00   -134208.2923; 6.0E+03 N REF: 0 !
PARAMETER G(FCC,HF:TI;0) 1.00   8275.183219 ; 6.0E+03 N REF: 0 !
PARAMETER G(FCC,HF:V;0) 1.00    33875.14809 ; 6.0E+03 N REF: 0 !
PARAMETER G(FCC,HF:W;0) 1.00    50082.26804 ; 6.0E+03 N REF: 0 !
PARAMETER G(FCC,HF:ZR;0) 1.00   5281.726476; 6.0E+03 N REF: 0 !
PARAMETER G(FCC,HF:MN;0) 1.00  30551.22917; 6.0E+03 N REF: 0 !

PARAMETER G(FCC,HF:BI;0) 1.00 24313.73758 ; 6.0E+03 N REF: 0 !
PARAMETER G(FCC,HF:CA;0) 1.00 52454.40795 ; 6.0E+03 N REF: 0 !
PARAMETER G(FCC,HF:CD;0) 1.00 1395.510798 ; 6.0E+03 N REF: 0 !
PARAMETER G(FCC,HF:CE;0) 1.00 105743.0493 ; 6.0E+03 N REF: 0 !
PARAMETER G(FCC,HF:CO;0) 1.00 -36413.63197; 6.0E+03 N REF: 0 !
PARAMETER G(FCC,HF:DY;0) 1.00 13566.80409 ; 6.0E+03 N REF: 0 !
PARAMETER G(FCC,HF:ER;0) 1.00 13146.85313 ; 6.0E+03 N REF: 0 !
PARAMETER G(FCC,HF:EU;0) 1.00 649610.7587 ; 6.0E+03 N REF: 0 !
PARAMETER G(FCC,HF:GD;0) 1.00 14172.99523 ; 6.0E+03 N REF: 0 !
PARAMETER G(FCC,HF:HO;0) 1.00 13324.77147 ; 6.0E+03 N REF: 0 !
PARAMETER G(FCC,HF:IN;0) 1.00 -1862.691167; 6.0E+03 N REF: 0 !
PARAMETER G(FCC,HF:IR;0) 1.00 -79287.77893; 6.0E+03 N REF: 0 !
PARAMETER G(FCC,HF:LA;0) 1.00 19240.3633  ; 6.0E+03 N REF: 0 !
PARAMETER G(FCC,HF:LI;0) 1.00 54687.91509 ; 6.0E+03 N REF: 0 !
PARAMETER G(FCC,HF:LU;0) 1.00 12513.38086 ; 6.0E+03 N REF: 0 !
PARAMETER G(FCC,HF:MG;0) 1.00 14203.19503 ; 6.0E+03 N REF: 0 !
PARAMETER G(FCC,HF:ND;0) 1.00 19350.25972 ; 6.0E+03 N REF: 0 !
PARAMETER G(FCC,HF:OS;0) 1.00 -10089.72591; 6.0E+03 N REF: 0 !
PARAMETER G(FCC,HF:PR;0) 1.00 20661.05669 ; 6.0E+03 N REF: 0 !
PARAMETER G(FCC,HF:PT;0) 1.00 -107195.7999; 6.0E+03 N REF: 0 !
PARAMETER G(FCC,HF:RE;0) 1.00 -150189.0334; 6.0E+03 N REF: 0 !
PARAMETER G(FCC,HF:RH;0) 1.00 -74721.96401; 6.0E+03 N REF: 0 !
PARAMETER G(FCC,HF:RU;0) 1.00 -22151.09866; 6.0E+03 N REF: 0 !
PARAMETER G(FCC,HF:SC;0) 1.00 8030.229459 ; 6.0E+03 N REF: 0 !
PARAMETER G(FCC,HF:SM;0) 1.00 17212.75515 ; 6.0E+03 N REF: 0 !
PARAMETER G(FCC,HF:TA;0) 1.00 23454.44216 ; 6.0E+03 N REF: 0 !
PARAMETER G(FCC,HF:TB;0) 1.00 13785.70444 ; 6.0E+03 N REF: 0 !
PARAMETER G(FCC,HF:TM;0) 1.00 12862.31887 ; 6.0E+03 N REF: 0 !
PARAMETER G(FCC,HF:Y;0) 1.00 15451.08378 ; 6.0E+03 N REF: 0 !
PARAMETER G(FCC,HF:YB;0) 1.00 53603.68903 ; 6.0E+03 N REF: 0 !
PARAMETER G(FCC,HF:ZN;0) 1.00 -19358.38858; 6.0E+03 N REF: 0 !
		     
PARAMETER G(FCC,MN:AG;0) 1.00  71408.5485; 6.0E+03 N REF: 0 !
PARAMETER G(FCC,MN:AL;0) 1.00  -3015.1563; 6.0E+03 N REF: 0 !
PARAMETER G(FCC,MN:AU;0) 1.00  53370.6777; 6.0E+03 N REF: 0 !
PARAMETER G(FCC,MN:CR;0) 1.00  27671.8980; 6.0E+03 N REF: 0 !
PARAMETER G(FCC,MN:CU;0) 1.00  43391.7166; 6.0E+03 N REF: 0 !
PARAMETER G(FCC,MN:FE;0) 1.00  -22772.8721; 6.0E+03 N REF: 0 !
PARAMETER G(FCC,MN:HF;0) 1.00  27703.22403; 6.0E+03 N REF: 0 !
PARAMETER G(FCC,MN:MN;0) 1.00  7955.1883; 6.0E+03 N REF: 0 !
PARAMETER G(FCC,MN:MO;0) 1.00  -37872.7746; 6.0E+03 N REF: 0 !
PARAMETER G(FCC,MN:NB;0) 1.00  47600.8748; 6.0E+03 N REF: 0 !
PARAMETER G(FCC,MN:NI;0) 1.00  10528.9256; 6.0E+03 N REF: 0 !
PARAMETER G(FCC,MN:PB;0) 1.00  87451.5919; 6.0E+03 N REF: 0 !
PARAMETER G(FCC,MN:PD;0) 1.00  21130.2150; 6.0E+03 N REF: 0 !
PARAMETER G(FCC,MN:SB;0) 1.00  379666.0629; 6.0E+03 N REF: 0 !
PARAMETER G(FCC,MN:SN;0) 1.00  339668.2061; 6.0E+03 N REF: 0 !
PARAMETER G(FCC,MN:TI;0) 1.00  12846.9777; 6.0E+03 N REF: 0 !
PARAMETER G(FCC,MN:V;0) 1.00   21463.0882; 6.0E+03 N REF: 0 !
PARAMETER G(FCC,MN:W;0) 1.00   39541.9651; 6.0E+03 N REF: 0 !
PARAMETER G(FCC,MN:ZR;0) 1.00  29811.54866; 6.0E+03 N REF: 0 !

PARAMETER G(FCC,MN:BI;0) 1.00 86614.5845 ; 6.0E+03 N REF: 0 !
PARAMETER G(FCC,MN:CA;0) 1.00 78792.06313; 6.0E+03 N REF: 0 !
PARAMETER G(FCC,MN:CD;0) 1.00 45236.99225; 6.0E+03 N REF: 0 !
PARAMETER G(FCC,MN:CE;0) 1.00 146285.7328; 6.0E+03 N REF: 0 !
PARAMETER G(FCC,MN:CO;0) 1.00 -2363.8825 ; 6.0E+03 N REF: 0 !
PARAMETER G(FCC,MN:DY;0) 1.00 47583.98988; 6.0E+03 N REF: 0 !
PARAMETER G(FCC,MN:ER;0) 1.00 45461.31988; 6.0E+03 N REF: 0 !
PARAMETER G(FCC,MN:EU;0) 1.00 674169.6405; 6.0E+03 N REF: 0 !
PARAMETER G(FCC,MN:GD;0) 1.00 49716.30838; 6.0E+03 N REF: 0 !
PARAMETER G(FCC,MN:HO;0) 1.00 46539.53975; 6.0E+03 N REF: 0 !
PARAMETER G(FCC,MN:IN;0) 1.00 57529.18125; 6.0E+03 N REF: 0 !
PARAMETER G(FCC,MN:IR;0) 1.00 -8866.9715 ; 6.0E+03 N REF: 0 !
PARAMETER G(FCC,MN:LA;0) 1.00 47376.90894; 6.0E+03 N REF: 0 !
PARAMETER G(FCC,MN:LI;0) 1.00 82584.79199; 6.0E+03 N REF: 0 !
PARAMETER G(FCC,MN:LU;0) 1.00 28707.25441; 6.0E+03 N REF: 0 !
PARAMETER G(FCC,MN:MG;0) 1.00 30071.93825; 6.0E+03 N REF: 0 !
PARAMETER G(FCC,MN:ND;0) 1.00 50998.35281; 6.0E+03 N REF: 0 !
PARAMETER G(FCC,MN:OS;0) 1.00 2913.002756; 6.0E+03 N REF: 0 !
PARAMETER G(FCC,MN:PR;0) 1.00 53740.52888; 6.0E+03 N REF: 0 !
PARAMETER G(FCC,MN:PT;0) 1.00 2095.6542  ; 6.0E+03 N REF: 0 !
PARAMETER G(FCC,MN:RE;0) 1.00 -157056.546; 6.0E+03 N REF: 0 !
PARAMETER G(FCC,MN:RH;0) 1.00 1523.570514; 6.0E+03 N REF: 0 !
PARAMETER G(FCC,MN:RU;0) 1.00 12361.70644; 6.0E+03 N REF: 0 !
PARAMETER G(FCC,MN:SC;0) 1.00 28554.61514; 6.0E+03 N REF: 0 !
PARAMETER G(FCC,MN:SM;0) 1.00 54215.16271; 6.0E+03 N REF: 0 !
PARAMETER G(FCC,MN:TA;0) 1.00 30250.45962; 6.0E+03 N REF: 0 !
PARAMETER G(FCC,MN:TB;0) 1.00 48574.16719; 6.0E+03 N REF: 0 !
PARAMETER G(FCC,MN:TM;0) 1.00 44004.39638; 6.0E+03 N REF: 0 !
PARAMETER G(FCC,MN:Y;0) 1.00 50140.84237; 6.0E+03 N REF: 0 !
PARAMETER G(FCC,MN:YB;0) 1.00 76970.90875; 6.0E+03 N REF: 0 !
PARAMETER G(FCC,MN:ZN;0) 1.00 9720.86375 ; 6.0E+03 N REF: 0 !
		

PARAMETER G(FCC,MO:AG;0) 1.00   54316.2307; 6.0E+03 N REF: 0 !
PARAMETER G(FCC,MO:AL;0) 1.00   -33907.2411; 6.0E+03 N REF: 0 !
PARAMETER G(FCC,MO:AU;0) 1.00   29763.2104; 6.0E+03 N REF: 0 !
PARAMETER G(FCC,MO:CR;0) 1.00   17929.3251; 6.0E+03 N REF: 0 !
PARAMETER G(FCC,MO:CU;0) 1.00   24246.6805; 6.0E+03 N REF: 0 !
PARAMETER G(FCC,MO:FE;0) 1.00   -47465.7957; 6.0E+03 N REF: 0 !
PARAMETER G(FCC,MO:HF;0) 1.00   -4566.287902; 6.0E+03 N REF: 0 !
PARAMETER G(FCC,MO:MO;0) 1.00   -56409.9553; 6.0E+03 N REF: 0 !
PARAMETER G(FCC,MO:NB;0) 1.00   21890.0344; 6.0E+03 N REF: 0 !
PARAMETER G(FCC,MO:NI;0) 1.00   -17688.1126; 6.0E+03 N REF: 0 !
PARAMETER G(FCC,MO:PB;0) 1.00   63897.1913; 6.0E+03 N REF: 0 !
PARAMETER G(FCC,MO:PD;0) 1.00   -14434.1560; 6.0E+03 N REF: 0 !
PARAMETER G(FCC,MO:SB;0) 1.00   51863.26626; 6.0E+03 N REF: 0 !
PARAMETER G(FCC,MO:SN;0) 1.00   -102439.6597; 6.0E+03 N REF: 0 !
PARAMETER G(FCC,MO:TI;0) 1.00   -13903.4885; 6.0E+03 N REF: 0 !
PARAMETER G(FCC,MO:V;0) 1.00    4633.6921; 6.0E+03 N REF: 0 !
PARAMETER G(FCC,MO:W;0) 1.00    21593.3430; 6.0E+03 N REF: 0 !
PARAMETER G(FCC,MO:ZR;0) 1.00   -2363.890095; 6.0E+03 N REF: 0 !
PARAMETER G(FCC,MO:MN;0) 1.00  -6322.1796; 6.0E+03 N REF: 0 !

PARAMETER G(FCC,MO:BI;0) 1.00  84822.47211  ; 6.0E+03 N REF: 0 !